 @SET SYSNAME ZIF4_300

 &GLOBAL
   PRINT_LEVEL MEDIUM
   PROJECT_NAME ZIF4_1
   RUN_TYPE MD
 &END GLOBAL
 &FORCE_EVAL
   METHOD  QS
   STRESS_TENSOR  DIAGONAL_ANALYTICAL
   &DFT
     BASIS_SET_FILE_NAME ../data/BASIS_SET
     BASIS_SET_FILE_NAME ../data/BASIS_MOLOPT
     POTENTIAL_FILE_NAME ../data/POTENTIAL
     &SCF
       MAX_SCF  200
       EPS_SCF     1.0000000000000001E-05
       SCF_GUESS  ATOMIC
       &MIXING  T
         METHOD  PULAY_MIXING
         ALPHA     5.0000000000000000E-01
         NBUFFER  5
       &END MIXING
       &PRINT
         &RESTART  OFF
         &END RESTART
       &END PRINT
       &OT ON
         PRECONDITIONER FULL_SINGLE_INVERSE
         MINIMIZER DIIS
       &END OT
     &END SCF
     &QS
       EPS_DEFAULT     9.9999999999999995E-08
     &END QS
     &MGRID
       NGRIDS  4
       CUTOFF     6.0000000000000000E+02
       REL_CUTOFF     4.0000000000000000E+01
     &END MGRID
     &XC
       DENSITY_CUTOFF     1.0000000000000000E-10
       GRADIENT_CUTOFF     1.0000000000000000E-10
       TAU_CUTOFF     1.0000000000000000E-10
       &XC_FUNCTIONAL  NO_SHORTCUT
         &PBE  T
         &END PBE
       &END XC_FUNCTIONAL
       &VDW_POTENTIAL
         POTENTIAL_TYPE  PAIR_POTENTIAL
         &PAIR_POTENTIAL
           R_CUTOFF     1.6000000000000000E+01
           TYPE  DFTD3
           PARAMETER_FILE_NAME ../data/dftd3.dat
           REFERENCE_FUNCTIONAL PBE
         &END PAIR_POTENTIAL
       &END VDW_POTENTIAL
     &END XC
   &END DFT
   &SUBSYS
     &CELL
       A     1.5423100000000000E+01    0.0000000000000000E+00    0.0000000000000000E+00
       B     0.0000000000000000E+00    1.5404200000000001E+01    0.0000000000000000E+00
       C     0.0000000000000000E+00    0.0000000000000000E+00    1.8437899999999999E+01
       MULTIPLE_UNIT_CELL  1 1 1
     &END CELL
     &COORD
C    8.6598178046589636E-01    7.4315683863597004E-01    8.5175250061274632E-01
H    8.2330032648167961E-01    7.9525008017152132E-01    8.3240390431435962E-01
C    9.1072787864364180E-01    6.2149796103255539E-01    9.0007855015771732E-01
H    9.0694076526961021E-01    5.5779115807598278E-01    9.2643458433269843E-01
C    9.8287423508431260E-01    6.6904964426107216E-01    8.7774124416868515E-01
H    5.2188215193169997E-02    6.5381183491995498E-01    8.8142431548272460E-01
C    6.7671466965241422E-01    5.3539956419582024E-01    7.7090146814580052E-01
H    7.2633857652763589E-01    5.7106300074337268E-01    7.4045760896176882E-01
C    6.6224734056162649E-01    8.4184888676171310E-01    8.8057098908618725E-01
H    7.0310927669492373E-01    8.6389862613498536E-01    9.2563778344059444E-01
C    5.9613728715887804E-01    7.5146672915237012E-01    8.0773061770114318E-01
H    5.7350033889897001E-01    6.9097210635959505E-01    7.8258319281350330E-01
C    1.1034368623191217E-01    8.5495511569182325E-01    9.5772407655372371E-01
H    5.3518386540469871E-02    8.2799382631823604E-01    9.8564927729636542E-01
C    1.1723625500972859E-01    8.8972642708922689E-01    6.7142814705258991E-01
H    1.1237242151897196E-01    9.6015213388889031E-01    6.7918851535064662E-01
C    9.0212677486782622E-01    9.9622818219730969E-01    8.6391601092611015E-01
H    9.2861925436550929E-01    9.9274331293438767E-01    9.1912272313682430E-01
C    8.8144216439409862E-01    9.7152696778862579E-01    7.4839402021302437E-01
H    8.9142238094121939E-01    9.4177240078481950E-01    6.9500575033796419E-01
C    7.4195019365220038E-01    5.9808421563611580E-01    6.3016405297308009E-02
H    8.0951841844586214E-01    5.8078854111236666E-01    5.1417324265844701E-02
C    1.9611521301773799E-01    9.0242364727062352E-01    8.7187671012862467E-01
H    2.1682093310818287E-01    9.2017146005030581E-01    8.1693630414694340E-01
N    8.3673987597144039E-01    6.6915138975924360E-01    8.8335886365263483E-01
N    9.5370493462544170E-01    7.4623303799837049E-01    8.4720004606323818E-01
N    6.8703595440730003E-01    6.2846607283820521E-01    8.8611211858192745E-03
N    6.6313112624868498E-01    5.5046864199040690E-01    8.4438127701884769E-01
N    6.4857255955588022E-01    7.5402833364368538E-01    8.6681304462826037E-01
N    1.1264717037937552E-01    8.7275709595522200E-01    8.8567687413379681E-01
N    7.5170718025665079E-02    8.3162585947308731E-01    7.1723247464919881E-01
N    9.3126949976759199E-01    9.4719642162939333E-01    8.0782948112824138E-01
Zn    7.1125833409113393E-01    6.4812178783534946E-01    9.0419336790107718E-01
Zn    1.8709632283256651E-02    8.5163734619214659E-01    8.1304926024188995E-01
C    6.3402031864747666E-01    2.5684511431762624E-01    3.5172158441071194E-01
H    6.7669679750927503E-01    2.0475879808495373E-01    3.3235620110696912E-01
C    5.8928125991814173E-01    3.7847562706399734E-01    4.0009191887117612E-01
H    5.9307169267781146E-01    4.4216682956713954E-01    4.2647202634929882E-01
C    5.1713158692036876E-01    3.3093125097739923E-01    3.7775612416704457E-01
H    4.4781887631416467E-01    3.4616142559594670E-01    3.8145975857975761E-01
C    8.2331322522688122E-01    4.6458401580274505E-01    2.7088056221334300E-01
H    7.7371258112431140E-01    4.2890518379940545E-01    2.4042550947199684E-01
C    8.3767781477960324E-01    1.5812222236908738E-01    3.8052697685046255E-01
H    7.9678903679781266E-01    1.3606993303757131E-01    4.2557531473702981E-01
C    9.0387582921664766E-01    2.4850642390629482E-01    3.0774399778873307E-01
H    9.2655073061504245E-01    3.0899998294535147E-01    2.8262349119318458E-01
C    3.8963823801530317E-01    1.4507167754122607E-01    4.5769669364363497E-01
H    4.4645441504286287E-01    1.7204933480088350E-01    4.8562353195855101E-01
C    3.8283637019421357E-01    1.1029887685818249E-01    1.7136200424190359E-01
H    3.8772210841389065E-01    3.9873154380735069E-02    1.7910226445958488E-01
C    5.9787869661153570E-01    3.7808245893762829E-03    3.6391421999015283E-01
H    5.7137907392374310E-01    7.2702500612233144E-03    4.1911783492912819E-01
C    6.1857139212286083E-01    2.8463649305222886E-02    2.4839648425137839E-01
H    6.0859985843815323E-01    5.8208820828847894E-02    1.9500430988009898E-01
C    7.5806059708139939E-01    4.0192473970396242E-01    5.6299157647191189E-01
H    6.9048810898551893E-01    4.1920550227510539E-01    5.5139317553061207E-01
C    3.0387803312704514E-01    9.7580394445292234E-02    3.7185257842250580E-01
H    2.8317459515361598E-01    7.9823872186215047E-02    3.1691510246219884E-01
N    6.6326941141700591E-01    3.3083286830848002E-01    3.8335105999093860E-01
N    5.4629798004074337E-01    2.5376207462924893E-01    3.4718940151531669E-01
N    8.1298030140571154E-01    3.7155105812584743E-01    5.0883763479466571E-01
N    8.3688534412927607E-01    4.4950858574486369E-01    3.4436038207330205E-01
N    8.5139945529347927E-01    2.4594117996869294E-01    3.6679925461037266E-01
N    3.8733776808035392E-01    1.2727112626696932E-01    3.8564937729684157E-01
N    4.2485794142507061E-01    1.6839277488199136E-01    2.1719944239603742E-01
N    5.6873107075005247E-01    5.2798918589181169E-02    3.0782169846476470E-01
Zn    7.8875369966422493E-01    3.5186731420381295E-01    4.0417727274101767E-01
Zn    4.8129421473547912E-01    1.4836286328905926E-01    3.1301891752013461E-01
C    1.3400182320450493E-01    2.4315508766652363E-01    6.4825466580931712E-01
H    1.7668015864057210E-01    2.9525308054064786E-01    6.6759919432478532E-01
C    8.9259872321640121E-02    1.2149280459071424E-01    5.9993443123565959E-01
H    9.3049169190196249E-02    5.7786344565836575E-02    5.7357880140673312E-01
C    1.7111489948120680E-02    1.6904020171579631E-01    6.2227377719086607E-01
H    9.4779835630240394E-01    1.5379697051807178E-01    6.1859570704136768E-01
C    3.2328687047049992E-01    3.5389738086698784E-02    7.2907595151644911E-01
H    2.7364947755894564E-01    7.1034076592035769E-02    7.5952021118599999E-01
C    3.3771847600750599E-01    3.4186759276502837E-01    6.1943211939532927E-01
H    2.9684422065062471E-01    3.6391736304769678E-01    5.7437306299163482E-01
C    4.0385356297446773E-01    2.5148594478866387E-01    6.9225846699554905E-01
H    4.2649733346115626E-01    1.9099164731734738E-01    7.1740167636870300E-01
C    8.8966916741807234E-01    3.5496968525626910E-01    5.4227608618011736E-01
H    9.4646417116677506E-01    3.2792187099072245E-01    5.1436670600252210E-01
C    8.8273450848418422E-01    3.8974355850417974E-01    8.2856292116567554E-01
H    8.8759340597796421E-01    4.6016937534110602E-01    8.2080073538194542E-01
C    9.7892666460198369E-02    4.9620870228674263E-01    6.3609986361491522E-01
H    7.1407700911998176E-02    4.9271184329735807E-01    5.8089103806125020E-01
C    1.1855728038747765E-01    4.7153779330147111E-01    7.5162881340726762E-01
H    1.0857405018050244E-01    4.4179098012019147E-01    8.0501988539288272E-01
C    2.5798259798305834E-01    9.8270307214812141E-02    4.3695108233547836E-01
H    1.9039480525744837E-01    8.1043557380194670E-02    4.4854068110255785E-01
C    8.0395216425231397E-01    4.0261368071175929E-01    6.2809344362754038E-01
H    7.8326196580144547E-01    4.2042100115766678E-01    6.8302415988601894E-01
N    1.6324665365719601E-01    1.6915126695033481E-01    6.1664843826024496E-01
N    4.6278541726027141E-02    2.4622747565524858E-01    6.5280912099627431E-01
N    3.1293061699607877E-01    1.2854392305598000E-01    4.9112418454392248E-01
N    3.3687342163256051E-01    5.0471542405016015E-02    6.5559840434509442E-01
N    3.5140139811297288E-01    2.5404813344362448E-01    6.3318717607862784E-01
N    8.8738463586764360E-01    3.7283483726874406E-01    6.1431276791272127E-01
N    9.2481438448160180E-01    3.3164293821577767E-01    7.8276772404408024E-01
N    6.8743600936834751E-02    4.4718825933375433E-01    6.9219064017741805E-01
Zn    2.8873129962747685E-01    1.4813758115500120E-01    5.9580363595113750E-01
Zn    9.8128994321444918E-01    3.5164118238811615E-01    6.8695963807898097E-01
C    3.6599454011145849E-01    7.5684888115632287E-01    1.4828667123969594E-01
H    3.2332106499630037E-01    7.0475837026273558E-01    1.6764936162175914E-01
C    4.1072805121810463E-01    8.7848436383210837E-01    9.9921173450963477E-02
H    4.0693389121870327E-01    9.4217559671220208E-01    7.3541726976074695E-02
C    4.8288000143942161E-01    8.3094203152368384E-01    1.2225584780533513E-01
H    5.5219142811640765E-01    8.4618008190577887E-01    1.1855725265799445E-01
C    1.7668995080187200E-01    9.6459675815011958E-01    2.2909817190622414E-01
H    2.2630342724617761E-01    9.2893491839990949E-01    2.5955199697413739E-01
C    1.6235757251876159E-01    6.5810566163183382E-01    1.1948434852921179E-01
H    2.0325324682800891E-01    6.3605368587766420E-01    7.4440025177948149E-02
C    9.6146681188531119E-02    7.4848806961978909E-01    1.9225794840256724E-01
H    7.3454359883919282E-02    8.0898174125725220E-01    2.1736789278571722E-01
C    6.1034894527947725E-01    6.4505861857869018E-01    4.2300204301543937E-02
H    5.5356091106613603E-01    6.7211668325166918E-01    1.4387378967319477E-02
C    6.1719284558502874E-01    6.1028234126284120E-01    3.2862529315309480E-01
H    6.1231053077389719E-01    5.3985680854701257E-01    3.2088301325640850E-01
C    4.0210565715124219E-01    5.0379606561416879E-01    1.3609981682544633E-01
H    4.2859472225752360E-01    5.0729783801695716E-01    8.0893319940411962E-02
C    3.8143018158553055E-01    5.2845332859976235E-01    2.5162296517541088E-01
H    3.9140154378735126E-01    5.5819589547763415E-01    3.0501631948438140E-01
C    2.4200887904041765E-01    9.0173089138543472E-01    9.3697782097473747E-01
H    3.0960193147966747E-01    9.1894066023876764E-01    9.4856680134517168E-01
C    6.9605731178412966E-01    5.9739790915589452E-01    1.2811636529138784E-01
H    7.1674626037620393E-01    5.7958479007872887E-01    1.8304468148620415E-01
N    3.3674234454348423E-01    8.3083467492189589E-01    1.1665680894589385E-01
N    4.5371714295916482E-01    7.5376912656959727E-01    1.5281806157353339E-01
N    1.8705298488550953E-01    8.7147316454817703E-01    9.9115108475935398E-01
N    1.6310624202912266E-01    9.4950234557287005E-01    1.5562218493433147E-01
N    1.4861708261492548E-01    7.4592488038967342E-01    1.3319962793531534E-01
N    6.1263097035659186E-01    6.2719482331123666E-01    1.1433717277075336E-01
N    5.7515899138174054E-01    6.6837669950135958E-01    2.8279634626273731E-01
N    4.3125198608495235E-01    5.5281229966830481E-01    1.9219431430736431E-01
Zn    2.1125685620437315E-01    8.5185159653623610E-01    9.5822315069044206E-02
Zn    5.1870661705464727E-01    6.4835974607171054E-01    1.8698551941717512E-01
C    1.3401502985901217E-01    2.5684881759313249E-01    1.4825277325735872E-01
H    1.7669737907001951E-01    2.0475594795827792E-01    1.6759792068684543E-01
C    8.9265961269653249E-02    3.7850306946476925E-01    9.9926824903378633E-02
H    9.3050499540684423E-02    4.4220617146961183E-01    7.3565713990504891E-02
C    1.7121699143551439E-02    3.3094870379336788E-01    1.2226134627734395E-01
H    9.4780876166113448E-01    3.4618590158494233E-01    1.1857800675056318E-01
C    3.2328494559404730E-01    4.6460033016234842E-01    2.2909998908996110E-01
H    2.7366672651366714E-01    4.2893362940879848E-01    2.5954447521984197E-01
C    3.3774175102898224E-01    1.5815103436516340E-01    1.1941905468059386E-01
H    2.9687686992737933E-01    1.3610368297781131E-01    7.4353848098081127E-02
C    4.0386810254419492E-01    2.4852791852843661E-01    1.9225203306540595E-01
H    4.2650521232813049E-01    3.0901936314920658E-01    2.1740044536226627E-01
C    8.8965861014775849E-01    1.4504384211418542E-01    4.2278224759173519E-02
H    9.4648206403893953E-01    1.7200760424201744E-01    1.4352066375585507E-02
C    8.8276262975415221E-01    1.1027353596971472E-01    3.2857560752097625E-01
H    8.8762290969580016E-01    3.9849183553932743E-02    3.2081534131656242E-01
C    9.7876861791636724E-02    3.7734305765937995E-03    1.3608888164388674E-01
H    7.1385165985135793E-02    7.2573673127285182E-03    8.0882509028350535E-02
C    1.1855226955512614E-01    2.8464262104185338E-02    2.5160611216671624E-01
H    1.0857862694700450E-01    5.8220170480162689E-02    3.0499379421249673E-01
C    2.5805088659731662E-01    4.0193584769045293E-01    9.3698402560575123E-01
H    1.9048299334523106E-01    4.1923672377782339E-01    9.4858071704658065E-01
C    8.0388701294167542E-01    9.7574675431453262E-02    1.2812129677480252E-01
H    7.8317793990123374E-01    7.9829560582642317E-02    1.8305992741450830E-01
N    1.6325619558700885E-01    3.3084948475447046E-01    1.1664008861106198E-01
N    4.6292783670574787E-02    2.5376646325199359E-01    1.5280161951918578E-01
N    3.1295862118273432E-01    3.7154383365587162E-01    9.9113982129482892E-01
N    3.3686600474176531E-01    4.4953051732410582E-01    1.5562056217050863E-01
N    3.5142076786241094E-01    2.4597015636868927E-01    1.3317793413106643E-01
N    8.8735285603541869E-01    1.2724770641644448E-01    1.1432584995555271E-01
N    9.2482512877249923E-01    1.6837263185561596E-01    2.8276965131946696E-01
N    6.8731397242606976E-02    5.2806622145989170E-02    1.9217266840602432E-01
Zn    2.8873707771041091E-01    3.5188044916762767E-01    9.5807362801732937E-02
Zn    9.8129026294597144E-01    1.4836379720222212E-01    1.8695676800273081E-01
C    3.6598036643816129E-01    7.4315559032167844E-01    6.4826564346458360E-01
H    3.2330521540610796E-01    7.9524376649833051E-01    6.6763280072430353E-01
C    4.1071481568210172E-01    6.2151684429830656E-01    5.9990084573056957E-01
H    4.0692152999770798E-01    5.5782153190784889E-01    5.7352669453805871E-01
C    4.8286707628410447E-01    6.6906288310734208E-01    6.2223275032180214E-01
H    5.5218079202551362E-01    6.5383104071598053E-01    6.1853009014766736E-01
C    1.7668058509925993E-01    5.3542151802429372E-01    7.2912005915648304E-01
H    2.2628835491915067E-01    5.7109613142385940E-01    7.5957352889385021E-01
C    1.6231813402893416E-01    8.4187746984287060E-01    6.1947311010375028E-01
H    2.0320696993104970E-01    8.6393081156333140E-01    5.7442476103244167E-01
C    9.6129088504463001E-02    7.5149207402949769E-01    6.9226220600223576E-01
H    7.3451686932597418E-02    6.9099734640566002E-01    7.1738230282884941E-01
C    6.1036893476041354E-01    8.5493415767274117E-01    5.4229280125775403E-01
H    5.5355321812670844E-01    8.2795627711230457E-01    5.1436541782099809E-01
C    6.1715837369882198E-01    8.8970227078140274E-01    8.2862316791638635E-01
H    6.1226647759810837E-01    9.6012890425128883E-01    8.2088198583526772E-01
C    4.0212063289867678E-01    9.9621672195449207E-01    6.3607127174769218E-01
H    4.2862121941087672E-01    9.9273194615524418E-01    5.8086719770883077E-01
C    3.8142542018837317E-01    9.7152447599178349E-01    7.5159329836620314E-01
H    3.9140500964806069E-01    9.4177976776608796E-01    8.0498532238972964E-01
C    2.4193941745302627E-01    5.9807894140488704E-01    4.3700760926647020E-01
H    3.0951092213605863E-01    5.8079770475085923E-01    4.4860806468598852E-01
C    6.9612417979181029E-01    9.0242395679555398E-01    6.2814219351753009E-01
H    7.1682231970466848E-01    9.2018220664914807E-01    6.8308216133216315E-01
N    3.3672959976078848E-01    6.6916250686286405E-01    6.1664491807566957E-01
N    4.5370389776627540E-01    7.4623416574796164E-01    6.5279888825002097E-01
N    1.8701688666397751E-01    6.2845010898501319E-01    4.9116039599828576E-01
N    1.6311274791828634E-01    5.5048831241882834E-01    6.5563817756888554E-01
N    1.4859717784604884E-01    7.5405795108663731E-01    6.3320110842695487E-01
N    6.1266368794881199E-01    8.7273609778577899E-01    6.1434049849133665E-01
N    5.7513854182337487E-01    8.3160227827996425E-01    7.8278831517602210E-01
N    4.3127124467528433E-01    9.4720238330878703E-01    6.9216509370609713E-01
Zn    2.1124228587692201E-01    6.4813150848797996E-01    5.9582037574046420E-01
Zn    5.1870696225425017E-01    8.5163555249118283E-01    6.8696140545588313E-01
C    8.6600138984113884E-01    7.5685038901728707E-01    3.5173488104044665E-01
H    8.2332273717981741E-01    7.0475348268134075E-01    3.3239193109714016E-01
C    9.1074483181780452E-01    8.7850645075639733E-01    4.0005776350530864E-01
H    9.0695705516917224E-01    9.4221001012449523E-01    4.2641705893159532E-01
C    9.8289197820072549E-01    8.3095743648881959E-01    3.7772220024769632E-01
H    5.2203833991019216E-02    8.4619893464319818E-01    3.8140426610929329E-01
C    6.7671776170086917E-01    9.6461123536949966E-01    2.7091833862695980E-01
H    7.2635051339624623E-01    9.2896335804357288E-01    2.4047514850244825E-01
C    6.6228939127414199E-01    6.5813318185774705E-01    3.8056770935772677E-01
H    7.0316480726160857E-01    6.3608540497169297E-01    4.2562603038207358E-01
C    5.9614487125241367E-01    7.4851113655732460E-01    3.0774654125662138E-01
H    5.7349913454376977E-01    8.0900285233257752E-01    2.8260406523593634E-01
C    1.1032846933299680E-01    6.4502995765620874E-01    4.5771993422343765E-01
H    5.3534360766862417E-02    6.7207757205869056E-01    4.8563056134988075E-01
C    1.1726778875212661E-01    6.1025618313673879E-01    1.7143220668409082E-01
H    1.1241174697587905E-01    5.3983172890771380E-01    1.7919379686259856E-01
C    9.0210636298130187E-01    5.0378867380735293E-01    3.6389394945218273E-01
H    9.2858860254736220E-01    5.0728550456976274E-01    4.1910256879099594E-01
C    8.8144709418321232E-01    5.2845387099308949E-01    2.4837010121347070E-01
H    8.9142226797108903E-01    5.5820382760496001E-01    1.9498008776136425E-01
C    7.4202277228498104E-01    9.0173954846717352E-01    5.6304379563492524E-01
H    8.0961226291212762E-01    9.1896489263077208E-01    5.5145804163450618E-01
C    1.9604681511041822E-01    5.9738644377797634E-01    3.7190771050707255E-01
H    2.1674048256186051E-01    5.7958076998496055E-01    3.1697910965429388E-01
N    8.3675610604572670E-01    8.3084991594077795E-01    3.8334608062320918E-01
N    9.5372369549975655E-01    7.5377093284690677E-01    3.4718771111942831E-01
N    6.8707855210465452E-01    8.7146252524000201E-01    5.0886969689616979E-01
N    6.6312677074990822E-01    9.4952437206997631E-01    3.4439430718659991E-01
N    6.4860204337707295E-01    7.4595165532164898E-01    3.6681376234495755E-01
N    1.1261486124674353E-01    6.2716747326118660E-01    3.8568359139705677E-01
N    7.5188151131548128E-02    6.6835519921001929E-01    2.1722742038306819E-01
N    9.3125300752707851E-01    5.5281588629264733E-01    3.0780672233241674E-01
Zn    7.1127389054862356E-01    8.5186296316945131E-01    4.0419081713756816E-01
Zn    1.8710214243370934E-02    6.4835858823335801E-01    3.1303202947101244E-01
C    6.3400586734594688E-01    2.4315298046528966E-01    8.5171944549747969E-01
H    6.7667876008390637E-01    2.9524612106160136E-01    8.3235653264841025E-01
C    5.8927492697895101E-01    1.2151325481062790E-01    9.0008321458723861E-01
H    5.9307062983081771E-01    5.7817511766932533E-02    9.2645628144530368E-01
C    5.1712026228810881E-01    1.6905322069004194E-01    8.7774685165159905E-01
H    4.4780759499005129E-01    1.5381508733778931E-01    8.8144564582247653E-01
C    8.2331398071990824E-01    3.5407108200855360E-02    7.7090058295132691E-01
H    7.7369156326292310E-01    7.1062713613349593E-02    7.4044848475385594E-01
C    8.3764877009254246E-01    3.4189432302390138E-01    8.8051561574353399E-01
H    7.9675208273317033E-01    3.6394747005259670E-01    9.2555941847325285E-01
C    9.0385201834109918E-01    2.5150974173651358E-01    8.0773668038903701E-01
H    9.2654287530278312E-01    1.9101470416190086E-01    7.8262492605226508E-01
C    3.8964536843658670E-01    3.5494523505385345E-01    9.5770302657815098E-01
H    4.4643114967258879E-01    3.2788129467571425E-01    9.8561529457172026E-01
C    3.8281105050418424E-01    3.8971808555443360E-01    6.7137926280366478E-01
H    3.8769720904159910E-01    4.6014459420453108E-01    6.7912357110337651E-01
C    5.9789699442878341E-01    4.9619898015196046E-01    8.6390676398305788E-01
H    5.7139924578472434E-01    4.9270608746466699E-01    9.1911194880723746E-01
C    6.1857828478583365E-01    4.7153433274047674E-01    7.4838001892913919E-01
H    6.0860110250642874E-01    4.4179336820361154E-01    6.9498618687075131E-01
C    7.5799160684493849E-01    9.8272715023475274E-02    6.3022463995145842E-02
H    6.9039994335539201E-01    8.1060544822964459E-02    5.1431669090648426E-02
C    3.0394419120191007E-01    4.0261684995701685E-01    8.7188271072976364E-01
H    2.8326072736223218E-01    4.2043568988952479E-01    8.1695267594813448E-01
N    6.6325918960685093E-01    1.6916387799048233E-01    8.8334469898992729E-01
N    5.4628224099836686E-01    2.4622940877185542E-01    8.4718772911788398E-01
N    8.1294887698019702E-01    1.2852955352253076E-01    8.8497785079438649E-03
N    8.3689205020187818E-01    5.0492257024136365E-02    8.4437856753569973E-01
N    8.5138454133957908E-01    2.5407469849296332E-01    8.6679748604159512E-01
N    3.8736815011652886E-01    3.7281359341290649E-01    8.8566603384350928E-01
N    4.2484247584919710E-01    3.3162045925916961E-01    7.1720859640378853E-01
N    5.6874255323628609E-01    4.4719377481166422E-01    8.0780860795858411E-01
Zn    7.8874599084205066E-01    1.4814743619706766E-01    9.0417895535916093E-01
Zn    4.8129281274688274E-01    3.5164042432370834E-01    8.1302157580090595E-01
       SCALED  T

     &END COORD
     &KIND C
       BASIS_SET DZVP-GTH-PBE
       POTENTIAL GTH-PBE-q4
     &END KIND
     &KIND H
       MASS 2.014101777
       BASIS_SET DZVP-GTH-PBE
       POTENTIAL GTH-PBE-q1
     &END KIND
     &KIND N
       BASIS_SET DZVP-GTH-PBE
       POTENTIAL GTH-PBE-q5
     &END KIND
     &KIND Zn
       BASIS_SET DZVP-MOLOPT-SR-GTH
       POTENTIAL GTH-PBE-q12
     &END KIND
     &TOPOLOGY
       NUMBER_OF_ATOMS  272
       MULTIPLE_UNIT_CELL  1 1 1
     &END TOPOLOGY
   &END SUBSYS
 &END FORCE_EVAL
 &MOTION
   &MD
     ENSEMBLE NVT
       &THERMOSTAT
         TYPE CSVR
         &CSVR
           TIMECON 1000
         &END CSVR
       &END THERMOSTAT
     STEPS 800000
     TEMPERATURE 300
     TIMESTEP 0.5
   &END MD
   &PRINT
     &RESTART
       FILENAME =${SYSNAME}.restart
       &EACH
         MD 1
       &END EACH
     &END RESTART
     &STRESS
       FILENAME =${SYSNAME}.stress
       &EACH
         MD 1
       &END EACH
     &END STRESS
     &VELOCITIES
       FILENAME =${SYSNAME}.vel
       &EACH
         MD 1
       &END EACH
     &END VELOCITIES
     &FORCES
       FILENAME =${SYSNAME}.frc
       &EACH
         MD 1
       &END EACH
     &END FORCES
     &CELL
       FILENAME =${SYSNAME}.cell
       &EACH
         MD 1
       &END EACH
     &END CELL
   &END PRINT
 &END MOTION
