 &GLOBAL
   PRINT_LEVEL MEDIUM 
   PROJECT_NAME ZIF62
   RUN_TYPE GEO_OPT 
 &END GLOBAL
 &FORCE_EVAL
   METHOD  QS
   STRESS_TENSOR  DIAGONAL_ANALYTICAL
   &DFT
     BASIS_SET_FILE_NAME ../data/BASIS_SET
     BASIS_SET_FILE_NAME ../data/BASIS_MOLOPT
     POTENTIAL_FILE_NAME ../data/POTENTIAL
     &SCF
       MAX_SCF  200
       EPS_SCF     1.0000000000000001E-05
       SCF_GUESS  ATOMIC
       &MIXING  T
         METHOD  PULAY_MIXING
         ALPHA     5.0000000000000000E-01
         NBUFFER  5
       &END MIXING
       &PRINT
         &RESTART  OFF
         &END RESTART
       &END PRINT
       &OT ON
         PRECONDITIONER FULL_SINGLE_INVERSE
         MINIMIZER DIIS
       &END OT         
     &END SCF
     &QS
       EPS_DEFAULT     9.9999999999999995E-08
     &END QS
     &MGRID
       NGRIDS  4
       CUTOFF     6.0000000000000000E+02
       REL_CUTOFF     4.0000000000000000E+01
     &END MGRID
     &XC
       DENSITY_CUTOFF     1.0000000000000000E-10
       GRADIENT_CUTOFF     1.0000000000000000E-10
       TAU_CUTOFF     1.0000000000000000E-10
       &XC_FUNCTIONAL  NO_SHORTCUT
         &PBE  T
         &END PBE
       &END XC_FUNCTIONAL
       &VDW_POTENTIAL
         POTENTIAL_TYPE  PAIR_POTENTIAL
         &PAIR_POTENTIAL
           R_CUTOFF     1.6000000000000000E+01
           TYPE  DFTD3
           PARAMETER_FILE_NAME ../data/dftd3.dat
           REFERENCE_FUNCTIONAL PBE
         &END PAIR_POTENTIAL
       &END VDW_POTENTIAL
     &END XC
   &END DFT
   &SUBSYS
     &CELL
       ABC 15.662000 15.662100 18.207300
       ALPHA_BETA_GAMMA 90.0 90.0 90.0
       MULTIPLE_UNIT_CELL  1 1 1
     &END CELL
     &COORD
C 14.1068 5.45354 9.872
C 9.38624 10.2086 0.768348
C 1.55524 13.2846 17.439
C 6.27576 2.37751 8.3353
C 1.55524 10.2086 8.3353
C 6.27576 5.45354 17.439
C 14.1068 2.37751 0.768348
C 9.38624 13.2846 9.872
C 14.2211 3.69312 14.5258
C 9.2719 11.969 5.42213
C 1.4409 11.5242 12.7852
C 6.3901 4.13793 3.68152
C 1.4409 11.969 3.68152
C 6.3901 3.69312 12.7852
C 14.2211 4.13793 5.42213
C 9.2719 11.5242 14.5258
C 1.53174 7.60082 11.6454
C 6.29926 8.06128 2.54174
C 14.1303 15.4319 15.6656
C 9.36274 0.230233 6.56191
C 14.1303 8.06128 6.56191
C 9.36274 7.60082 15.6656
C 1.53174 0.230233 2.54174
C 6.29926 15.4319 11.6454
C 2.32267 3.67746 11.6363
C 5.50833 11.9846 2.53264
C 13.3393 11.5085 15.6747
C 10.1537 4.15359 6.57101
C 13.3393 11.9846 6.57101
C 10.1537 3.67746 15.6747
C 2.32267 4.15359 2.53264
C 5.50833 11.5085 11.6363
C 1.70872 1.79958 10.8989
C 6.12228 13.8625 1.79524
C 13.9533 9.63063 16.4121
C 9.53972 6.03147 7.30841
C 13.9533 13.8625 7.30841
C 9.53972 1.79958 16.4121
C 1.70872 6.03147 1.79524
C 6.12228 9.63063 10.8989
C 0.574795 2.50594 11.2375
C 7.2562 13.1562 2.1339
C 15.0872 10.337 16.0734
C 8.4058 5.32511 6.96975
C 15.0872 13.1562 6.96975
C 8.4058 2.50594 16.0734
C 0.574795 5.32511 2.1339
C 7.2562 10.337 11.2375
C 5.97662 4.93983 11.1611
C 1.85438 10.7223 2.05742
C 9.68538 12.7709 16.1499
C 13.8076 2.89122 7.04623
C 9.68538 10.7223 7.04623
C 13.8076 4.93983 16.1499
C 5.97662 2.89122 2.05742
C 1.85438 12.7709 11.1611
C 4.92257 0.223968 13.1402
C 2.90843 15.4381 4.03656
C 10.7394 8.05502 14.1707
C 12.7536 7.60708 5.06709
C 10.7394 15.4381 5.06709
C 12.7536 0.223968 14.1707
C 4.92257 7.60708 4.03656
C 2.90843 8.05502 13.1402
C 4.51066 1.3626 7.95659
C 3.32034 14.2995 17.0602
C 11.1513 9.19365 1.14706
C 12.3417 6.46845 10.2507
C 11.1513 14.2995 10.2507
C 12.3417 1.3626 1.14706
C 4.51066 6.46845 17.0602
C 3.32034 9.19365 7.95659
C 13.0449 6.36351 11.3978
C 10.4481 9.29859 2.29412
C 2.61712 14.1946 15.9132
C 5.21388 1.46754 6.80953
C 2.61712 9.29859 6.80953
C 5.21388 6.36351 15.9132
C 13.0449 1.46754 2.29412
C 10.4481 14.1946 11.3978
C 14.4983 5.63522 15.2195
C 8.99469 10.0269 6.11583
C 1.16369 13.4663 12.0915
C 6.66731 2.19583 2.98782
C 1.16369 10.0269 2.98782
C 6.66731 5.63522 12.0915
C 14.4983 2.19583 6.11583
C 8.99469 13.4663 15.2195
C 2.13473 7.05891 13.5845
C 5.69627 8.60319 4.48082
C 13.5273 14.89 13.7265
C 9.96573 0.772142 4.62283
C 13.5273 8.60319 4.62283
C 9.96573 7.05891 13.7265
C 2.13473 0.772142 4.48082
C 5.69627 14.89 13.5845
C 6.2554 15.0356 0.893978
C 14.0864 15.0356 8.20967
C 1.5756 7.20457 0.893978
C 6.2554 8.45753 9.99763
C 8.54989 13.543 1.78067
C 0.718886 13.543 7.32298
C 14.9431 5.71197 1.78067
C 8.54989 9.95013 10.8843
C 7.5068 15.5211 0.67367
C 15.3378 15.5211 8.42998
C 0.324203 7.69009 0.67367
C 7.5068 7.97201 9.77732
C 8.65795 14.8743 1.05238
C 0.826954 14.8743 8.05127
C 14.835 7.04325 1.05238
C 8.65795 8.61885 10.156
H 1.71499 0.939726 10.5438
H 13.947 8.77078 16.7671
H 9.54599 6.89132 7.66345
H 9.54599 0.939726 16.7671
H 5.49893 15.4021 0.540757
H 13.3299 15.4021 8.56289
H 2.33207 7.57106 0.540757
H 5.49893 8.09104 9.64441
H 7.58824 0.678169 0.242157
H 15.4192 0.678169 8.86149
H 0.242761 8.50922 0.242157
H 7.58824 7.15288 9.34581
H 9.48961 15.2439 0.864847
H 1.65861 15.2439 8.2388
H 14.0034 7.41287 0.864847
H 9.48961 8.24923 9.9685
H 9.2954 13.0215 1.97549
H 1.4644 13.0215 7.12816
H 14.1976 5.19042 1.97549
H 9.2954 10.4717 11.0791
H 15.3582 2.21619 11.1338
H 0.303843 10.0472 16.1772
H 7.52716 5.61486 7.07354
H 7.52716 2.21619 16.1772
H 5.68217 5.26716 10.3436
H 2.14883 10.3949 1.23992
H 9.97983 13.0982 16.9674
H 13.5132 2.56389 7.86373
H 9.97983 10.3949 7.86373
H 13.5132 5.26716 16.9674
H 5.68217 2.56389 1.23992
H 2.14883 13.0982 10.3436
H 4.22248 0.606123 13.6191
H 3.60852 15.056 4.51541
H 11.4395 8.43717 13.6919
H 12.0535 7.22493 4.58824
H 11.4395 15.056 4.58824
H 12.0535 0.606123 13.6919
H 4.22248 7.22493 4.51541
H 3.60852 8.43717 13.6191
H 3.67744 0.956954 8.04216
H 4.15356 14.7051 17.1458
H 11.9846 8.788 1.06149
H 11.5084 6.8741 10.1651
H 11.9846 14.7051 10.1651
H 11.5084 0.956954 1.06149
H 3.67744 6.8741 17.1458
H 4.15356 8.788 8.04216
H 14.7755 4.98211 9.42774
H 8.71747 10.68 0.32409
H 0.886469 12.8132 17.8832
H 6.94453 2.84894 8.77956
H 0.886469 10.68 8.77956
H 6.94453 4.98211 17.8832
H 14.7755 2.84894 0.32409
H 8.71747 12.8132 9.42774
H 12.7771 6.68928 12.2262
H 10.7159 8.97282 3.12255
H 2.88494 14.5203 15.0847
H 4.94606 1.14177 5.9811
H 2.88494 8.97282 5.9811
H 4.94606 6.68928 15.0847
H 12.7771 1.14177 3.12255
H 10.7159 14.5203 12.2262
H 14.2556 2.93821 13.985
H 9.23745 12.7239 4.88138
H 1.40645 10.7693 13.3259
H 6.42455 4.89284 4.22227
H 1.40645 12.7239 4.22227
H 6.42455 2.93821 13.3259
H 14.2556 4.89284 4.88138
H 9.23745 10.7693 13.985
H 14.7489 6.52796 15.2868
H 8.74409 9.13414 6.1832
H 0.913095 14.359 12.0241
H 6.91791 1.30309 2.92045
H 0.913095 9.13414 2.92045
H 6.91791 6.52796 12.0241
H 14.7489 1.30309 6.1832
H 8.74409 14.359 15.2868
H 2.18485 6.65796 14.4202
H 5.64615 9.00414 5.31653
H 13.4772 14.489 12.8908
H 10.0158 1.17309 3.78712
H 13.4772 9.00414 3.78712
H 10.0158 6.65796 12.8908
H 2.18485 1.17309 5.31653
H 5.64615 14.489 14.4202
H 1.05719 7.63371 10.8461
H 6.77381 8.02839 1.74244
H 14.6048 15.4648 16.4649
H 8.88819 0.197342 7.36121
H 14.6048 8.02839 7.36121
H 8.88819 7.63371 16.4649
H 1.05719 0.197342 1.74244
H 6.77381 15.4648 10.8461
H 2.85832 4.39948 11.8766
H 4.97269 11.2626 2.77297
H 12.8037 12.2305 15.4343
H 10.6893 3.43157 6.33068
H 12.8037 11.2626 6.33068
H 10.6893 4.39948 15.4343
H 2.85832 3.43157 2.77297
H 4.97269 12.2305 11.8766
N 2.82073 2.54822 11.1611
N 5.01027 13.1139 2.05742
N 12.8413 10.3793 16.1499
N 10.6517 5.28283 7.04623
N 12.8413 13.1139 7.04623
N 10.6517 2.54822 16.1499
N 2.82073 5.28283 2.05742
N 5.01027 10.3793 11.1611
N 5.79181 3.69939 11.6199
N 2.03919 11.9627 2.51625
N 9.87019 11.5304 15.6911
N 13.6228 4.13166 6.5874
N 9.87019 11.9627 6.5874
N 13.6228 3.69939 15.6911
N 5.79181 4.13166 2.51625
N 2.03919 11.5304 11.6199
N 5.30159 0.59516 11.9112
N 2.52941 15.0669 2.80757
N 10.3604 8.42621 15.3997
N 13.1326 7.23589 6.29608
N 10.3604 15.0669 6.29608
N 13.1326 0.59516 15.3997
N 5.30159 7.23589 2.80757
N 2.52941 8.42621 11.9112
N 5.20448 1.93897 8.96345
N 2.62652 13.7231 18.0671
N 10.4575 9.77002 0.140196
N 13.0355 5.89208 9.24385
N 10.4575 13.7231 9.24385
N 13.0355 1.93897 0.140196
N 5.20448 5.89208 18.0671
N 2.62652 9.77002 8.96345
N 14.1851 5.71353 11.1502
N 9.30793 9.94857 2.0465
N 1.47693 13.5446 16.1608
N 6.35407 2.11752 7.05715
N 1.47693 9.94857 7.05715
N 6.35407 5.71353 16.1608
N 14.1851 2.11752 2.0465
N 9.30793 13.5446 11.1502
N 14.763 4.82236 14.1853
N 8.73 10.8397 5.08166
N 0.898999 12.6534 13.1256
N 6.932 3.00869 4.02199
N 0.898999 10.8397 4.02199
N 6.932 4.82236 13.1256
N 14.763 3.00869 5.08166
N 8.73 12.6534 14.1853
N 1.25609 6.73314 12.5903
N 6.57491 8.92896 3.4867
N 14.4059 14.5642 14.7206
N 9.08709 1.09791 5.61695
N 14.4059 8.92896 5.61695
N 9.08709 6.73314 14.7206
N 1.25609 1.09791 3.4867
N 6.57491 14.5642 12.5903
N 0.997669 3.70252 11.7455
N 6.83333 11.9596 2.64188
N 14.6643 11.5336 15.5654
N 8.82867 4.12853 6.46177
N 14.6643 11.9596 6.46177
N 8.82867 3.70252 15.5654
N 0.997669 4.12853 2.64188
N 6.83333 11.5336 11.7455
Zn 4.75232 2.18032 10.8623
Zn 3.07868 13.4818 1.75864
Zn 10.9097 10.0114 16.4487
Zn 12.5833 5.65073 7.34501
Zn 10.9097 13.4818 7.34501
Zn 12.5833 2.18032 16.4487
Zn 4.75232 5.65073 1.75864
Zn 3.07868 10.0114 10.8623
Zn 15.6217 5.24696 12.4409
Zn 7.87125 10.4151 3.33722
Zn 0.0402513 13.078 14.8701
Zn 7.79075 2.58409 5.76643
Zn 0.0402513 10.4151 5.76643
Zn 7.79075 5.24696 14.8701
Zn 15.6217 2.58409 3.33722
Zn 7.87125 13.078 12.4409
       SCALED F
     &END COORD
     &KIND C
       BASIS_SET DZVP-GTH-PBE
       POTENTIAL GTH-PBE-q4
       &BASIS
 2
 2 0 1 4 2 2
  0.4365761496600000E+01  0.1476030280000000E+00  0.0000000000000000E+00 -0.8641710610000000E-01  0.0000000000000000E+00
  0.1274962646900000E+01 -0.2100147790000000E-01  0.0000000000000000E+00 -0.2743211800000000E+00  0.0000000000000000E+00
  0.4052884311000000E+00 -0.7098993929000000E+00  0.0000000000000000E+00 -0.4772572587000000E+00  0.0000000000000000E+00
  0.1172717248000000E+00 -0.3801259461000000E+00  0.1000000000000000E+01 -0.4035098365000000E+00  0.1000000000000000E+01
 3 2 2 1 1
  0.6000000000000000E+00  0.1000000000000000E+01
         # Basis set name:  DZVP-GTH-PBE  for symbol:  C
         # Basis set read from the basis set filename: ../data/BASIS_SET
       &END BASIS
       &POTENTIAL
 2 2
  0.3384712400000000E+00 2 -0.8803673979999999E+01  0.1339210850000000E+01
 2
  0.3025757500000000E+00 1  0.9622486650000001E+01
  0.2915069400000000E+00 0
         # Potential name:  GTH-PBE-Q4  for symbol:  C
         # Potential read from the potential filename: ../data/POTENTIAL
       &END POTENTIAL
     &END KIND
     &KIND H
       MASS 2.014101777
       BASIS_SET DZVP-GTH-PBE
       POTENTIAL GTH-PBE-q1
       &BASIS
 2
 1 0 0 4 2
  0.8448693420800000E+01 -0.2904637730000000E-01  0.0000000000000000E+00
  0.1858164921500000E+01 -0.1327955318000000E+00  0.0000000000000000E+00
  0.5076108225000000E+00 -0.4061407363000000E+00  0.0000000000000000E+00
  0.1673904511000000E+00 -0.5490803703000000E+00  0.1000000000000000E+01
 2 1 1 1 1
  0.7000000000000000E+00  0.1000000000000000E+01
         # Basis set name:  DZVP-GTH-PBE  for symbol:  H
         # Basis set read from the basis set filename: ../data/BASIS_SET
       &END BASIS
       &POTENTIAL
 1
  0.2000000000000000E+00 2 -0.4178900440000000E+01  0.7244633100000000E+00
 0
         # Potential name:  GTH-PBE-Q1  for symbol:  H
         # Potential read from the potential filename: ../data/POTENTIAL
       &END POTENTIAL
     &END KIND
     &KIND N
       BASIS_SET DZVP-GTH-PBE
       POTENTIAL GTH-PBE-q5
       &BASIS
 2
 2 0 1 4 2 2
  0.6164618789800000E+01  0.1507499417000000E+00  0.0000000000000000E+00 -0.9381642200000000E-01  0.0000000000000000E+00
  0.1803721188300000E+01 -0.3390535200000000E-01  0.0000000000000000E+00 -0.2912161121000000E+00  0.0000000000000000E+00
  0.5658506122000000E+00 -0.7128963473000000E+00  0.0000000000000000E+00 -0.4795028541000000E+00  0.0000000000000000E+00
  0.1603297607000000E+00 -0.3703029459000000E+00  0.1000000000000000E+01 -0.3849298984000000E+00  0.1000000000000000E+01
 3 2 2 1 1
  0.7000000000000000E+00  0.1000000000000000E+01
         # Basis set name:  DZVP-GTH-PBE  for symbol:  N
         # Basis set read from the basis set filename: ../data/BASIS_SET
       &END BASIS
       &POTENTIAL
 2 3
  0.2837905100000000E+00 2 -0.1241522559000000E+02  0.1868095920000000E+01
 2
  0.2554050000000000E+00 1  0.1363026257000000E+02
  0.2454945300000000E+00 0
         # Potential name:  GTH-PBE-Q5  for symbol:  N
         # Potential read from the potential filename: ../data/POTENTIAL
       &END POTENTIAL
     &END KIND
     &KIND Zn
       BASIS_SET DZVP-MOLOPT-SR-GTH
       POTENTIAL GTH-PBE-q12
       &BASIS
 1
 2 0 3 6 2 2 2 1
  0.6400812724595000E+01  0.2180110563900000E-01  0.4272063134600000E-01  0.2944311709000000E-02  0.1562965808200000E-01  0.2856872125060000E+00 -0.8826392468300000E-01 -0.5482990030000000E-03
  0.3167793332690000E+01 -0.9561340862000001E-01 -0.1092424286550000E+00 -0.1045006812100000E-01 -0.6396738910400000E-01  0.3589139494340000E+00 -0.1372589945040000E+00  0.1063691080000000E-02
  0.1341703542578000E+01  0.2745998565910000E+00 -0.2473401231900000E-01  0.1095195438530000E+00 -0.6754486632600000E-01  0.3260764665900000E+00 -0.2215443277130000E+00  0.3073936907100000E-01
  0.5454184169410000E+00  0.1370562744020000E+00 -0.1003647707301000E+01 -0.6040292289900000E-01 -0.1445855240380000E+00  0.2244035937820000E+00  0.2581148171530000E+00  0.5045094330270000E+00
  0.2222217944490000E+00 -0.6251841972710001E+00  0.2351480103434000E+01 -0.5319209723470000E+00  0.1553520638132000E+01  0.9732535955500000E-01  0.3337242157610000E+00  0.2224750881240000E+00
  0.7983004542400000E-01 -0.4821848181240000E+00 -0.1671373693342000E+01 -0.4986688138650000E+00 -0.1253104288811000E+01  0.9048926598000001E-02  0.8579959428100000E+00  0.8940906393670000E+00
         # Basis set name:  DZVP-MOLOPT-SR-GTH  for symbol:  ZN
         # Basis set read from the basis set filename: ../data/BASIS_MOLOPT
       &END BASIS
       &POTENTIAL
 2 0 10
  0.5100000000000000E+00 0
 3
  0.4003164400000000E+00 3  0.1153004133000000E+02 -0.8791898150000000E+01  0.3145086440000000E+01
  0.1646577518000000E+02 -0.8120578269999999E+01
  0.6445509180000000E+01
  0.5431823300000000E+00 2  0.2597195120000000E+01 -0.5942627500000000E+00
  0.7031411700000000E+00
  0.2509588500000000E+00 1 -0.1446695795000000E+02
         # Potential name:  GTH-PBE-Q12  for symbol:  ZN
         # Potential read from the potential filename: ../data/POTENTIAL
       &END POTENTIAL
     &END KIND
     &TOPOLOGY
       NUMBER_OF_ATOMS  296
       MULTIPLE_UNIT_CELL  1 1 1
     &END TOPOLOGY
   &END SUBSYS
 &END FORCE_EVAL
