! -*- cp2k -*-

@SET SYSTEM Na-RHO-15CO2
@SET PRINT_STEP 10
@SET RESTART_STEP 1000
@SET RESTART 0

&GLOBAL
  PROJECT $SYSTEM
  RUN_TYPE MD
  PRINT_LEVEL MEDIUM
# WALLTIME 83700
&END GLOBAL

&MOTION
  &MD
    STEPS 40000
    ENSEMBLE NVT
    TIMESTEP [fs] 0.5
    TEMPERATURE [K] 298.0

    &THERMOSTAT
      TYPE CSVR
      #REGION MASSIVE
      REGION GLOBAL
      &CSVR
	TIMECON [fs] 100.0
      &END CSVR
    &END THERMOSTAT

    &BAROSTAT
      PRESSURE [bar] 1.0
      TIMECON [fs] 2000.0
    &END BAROSTAT

  &END MD

  &PRINT
    &TRAJECTORY  SILENT
      FILENAME =${SYSTEM}-1.xyz
      &EACH
        MD $PRINT_STEP
      &END EACH
    &END TRAJECTORY
    &CELL
      FILENAME =${SYSTEM}-1.cell
      &EACH
        MD $PRINT_STEP
      &END EACH
    &END CELL
    &STRESS  SILENT
      FILENAME =${SYSTEM}-1.stress
      &EACH
        MD $PRINT_STEP
      &END EACH
    &END STRESS
    &VELOCITIES  SILENT
      FILENAME =${SYSTEM}-1.vel
      &EACH
        MD $PRINT_STEP
      &END EACH
    &END VELOCITIES
    &FORCES  SILENT
      FILENAME =${SYSTEM}-1.force
      &EACH
        MD $PRINT_STEP
      &END EACH
    &END FORCES
    &RESTART
      FILENAME =${SYSTEM}-1.restart
      &EACH
        MD $RESTART_STEP
      &END EACH
    &END RESTART
  &END PRINT
&END MOTION

@INCLUDE 'Na-RHO-15CO2.force_eval.inc'

@IF ${RESTART} == 1
&EXT_RESTART
  EXTERNAL_FILE ${SYSTEM}-1.restart
  RESTART_COUNTERS    T
  RESTART_AVERAGES    T
  RESTART_POS         T
  RESTART_VEL         T
  RESTART_THERMOSTAT  T
  RESTART_BAROSTAT    T
  RESTART_CELL        T
&END EXT_RESTART
@ENDIF
