 # Version information for this restart file 
 # current date 2017-10-11 17:30:59.745
 # current working dir /gpfs5r/workgpfs/rech/drd/rdrd007/johannes/series/ZIF-4/opt-2500-atomonly
 # Program compiled at                             Tue Oct  7 14:39:23 CEST 2014
 # Program compiled on                                                    ada337
 # Program compiled for                                 Linux-x86-64-gfortran.FL
 # Source code revision number                                         svn:13632
 &GLOBAL
   PRINT_LEVEL  MEDIUM
   PROJECT_NAME ZIF4
   RUN_TYPE VIBRATIONAL_ANALYSIS
 &END GLOBAL
 &FORCE_EVAL
   METHOD  QS
   STRESS_TENSOR  DIAGONAL_ANALYTICAL
   &DFT
     BASIS_SET_FILE_NAME ../../data/BASIS_SET
     BASIS_SET_FILE_NAME ../../data/BASIS_MOLOPT
     POTENTIAL_FILE_NAME ../../data/POTENTIAL
     &SCF
       MAX_SCF  15000
       EPS_SCF     1.0000000000000000E-10
       SCF_GUESS  RESTART
       &OT  T
         MINIMIZER  DIIS
         PRECONDITIONER  FULL_SINGLE_INVERSE
       &END OT
       &MIXING  T
         METHOD  PULAY_MIXING
         ALPHA     5.0000000000000000E-01
         NBUFFER  5
       &END MIXING
       &PRINT
         &RESTART  LOW
         &END RESTART
       &END PRINT
     &END SCF
     &QS
       EPS_DEFAULT     1.0000000000000000E-10
     &END QS
     &MGRID
       NGRIDS  4
       CUTOFF     2.5000000000000000E+03
       REL_CUTOFF     1.0000000000000000E+02
     &END MGRID
     &XC
       DENSITY_CUTOFF     1.0000000000000000E-10
       GRADIENT_CUTOFF     1.0000000000000000E-10
       TAU_CUTOFF     1.0000000000000000E-10
       &XC_FUNCTIONAL  NO_SHORTCUT
         &PBE  T
         &END PBE
       &END XC_FUNCTIONAL
       &VDW_POTENTIAL
         POTENTIAL_TYPE  PAIR_POTENTIAL
         &PAIR_POTENTIAL
           R_CUTOFF     1.6000000000000000E+01
           TYPE  DFTD3
           PARAMETER_FILE_NAME ../../data/dftd3.dat
           REFERENCE_FUNCTIONAL PBE
         &END PAIR_POTENTIAL
       &END VDW_POTENTIAL
     &END XC
   &END DFT
   &SUBSYS
     &CELL
       A     1.4732766543997442E+01    0.0000000000000000E+00    0.0000000000000000E+00
       B     0.0000000000000000E+00    1.8294862857428043E+01    0.0000000000000000E+00
       C     0.0000000000000000E+00    0.0000000000000000E+00    1.5263973945037831E+01
       MULTIPLE_UNIT_CELL  1 1 1
     &END CELL
     &COORD
C   -2.4048759520274812E-01   -3.4645753668086143E-01   -1.1879784207548318E-01
C   -2.5950986522515085E-01    3.4645977000671480E-01    3.8120319579526207E-01
C    2.5950909282754758E-01   -1.5353851486943429E-01    1.1879885319225086E-01
C    2.4048927792970404E-01    1.5354319978189473E-01   -3.8120184851750322E-01
C    2.4048762775229576E-01    3.4645755895943336E-01    1.1879784415398292E-01
C    2.5950983407078820E-01   -3.4645967809262346E-01   -3.8120343896256481E-01
C   -2.5950904928035895E-01    1.5353851418635373E-01   -1.1879887670982975E-01
C   -2.4048927800023742E-01   -1.5354319486337212E-01    3.8120197784991988E-01
C    3.7863880630778557E-01   -9.3972072606248444E-02    7.1671266592035709E-02
C    1.2136409102409537E-01    9.3971248737357002E-02   -4.2833009777840336E-01
C   -1.2136182691956533E-01   -4.0602839939147628E-01   -7.1669152301911579E-02
C   -3.7863774868522254E-01    4.0602878601183029E-01    4.2833046505401018E-01
C   -3.7863877956477454E-01    9.3972069770492744E-02   -7.1671323575107221E-02
C   -1.2136408942118665E-01   -9.3971236739049210E-02    4.2833018663370875E-01
C    1.2136183541599227E-01    4.0602840835017406E-01    7.1669161155173744E-02
C    3.7863771625100351E-01   -4.0602871880889374E-01   -4.2833065435745815E-01
C    3.2809176835000453E-01   -1.1695960830321722E-01   -4.2597656355709438E-04
C    1.7191138875821743E-01    1.1695914724960925E-01   -5.0042697744671505E-01
C   -1.7191008994268461E-01   -3.8304143924689327E-01    4.2751762691619537E-04
C   -3.2809063516342002E-01    3.8304152943572684E-01    5.0042778260887832E-01
C   -3.2809175905967025E-01    1.1695959925612133E-01    4.2593383541516633E-04
C   -1.7191136104175470E-01   -1.1695914853769653E-01    5.0042707872582426E-01
C    1.7191010419000274E-01    3.8304147395422133E-01   -4.2751843529674672E-04
C    3.2809062074953987E-01   -3.8304148508200503E-01   -5.0042799659250836E-01
C    4.5745149114509559E-01   -2.3201287509340396E-01    3.2798379743573641E-01
C    4.2549822388183674E-02    2.3201245769675477E-01   -1.7201329901354107E-01
C   -4.2545770653845655E-02   -2.6798617638657446E-01   -3.2798525477170859E-01
C   -4.5745311374784331E-01    2.6798786191982260E-01    1.7201775706358466E-01
C   -4.5745143942855315E-01    2.3201289136270489E-01   -3.2798380419736706E-01
C   -4.2549628112379431E-02   -2.3201242912753695E-01    1.7201317677302116E-01
C    4.2545894170640856E-02    2.6798616400521075E-01    3.2798516582845516E-01
C    4.5745328348830255E-01   -2.6798783779695290E-01   -1.7201767902744647E-01
C    1.4901556265557817E-01   -1.1895393156752350E-01    3.1751910986875143E-01
C    3.5098453971403620E-01    1.1895713257922010E-01   -1.8248380947666398E-01
C   -3.5098285242846622E-01   -3.8104434883398314E-01   -3.1751467006449280E-01
C   -1.4901516674029927E-01    3.8104400604780841E-01    1.8248218329933802E-01
C   -1.4901554233949055E-01    1.1895386167646606E-01   -3.1751903667280795E-01
C   -3.5098458381708580E-01   -1.1895715862064968E-01    1.8248375055543084E-01
C    3.5098286630802322E-01    3.8104435877037640E-01    3.1751467139568212E-01
C    1.4901512013746562E-01   -3.8104389613863243E-01   -1.8248204996244982E-01
C    2.4188507604452250E-01   -1.8802510858436741E-01    3.9251252607004411E-01
C    2.5811510879379451E-01    1.8802523796887283E-01   -1.0748615905998679E-01
C   -2.5811430488232734E-01   -3.1197584873082373E-01   -3.9251280732565402E-01
C   -2.4188563060091856E-01    3.1197378790660885E-01    1.0748848337366997E-01
C   -2.4188508267886810E-01    1.8802500477465742E-01   -3.9251244520432765E-01
C   -2.5811516823557357E-01   -1.8802528081418637E-01    1.0748607553926551E-01
C    2.5811437429070955E-01    3.1197584788013732E-01    3.9251282128092152E-01
C    2.4188548517254890E-01   -3.1197363584088378E-01   -1.0748832635127298E-01
C    1.3546061651450925E-01   -4.3171029535143783E-02   -1.2445059517004808E-01
C    3.6454136570469586E-01    4.3172508174365604E-02    3.7555167687601704E-01
C   -3.6453952030122067E-01   -4.5682886222727420E-01    1.2444914054732356E-01
C   -1.3546177758365227E-01    4.5682930989994103E-01   -3.7554897521139674E-01
C   -1.3546058435775507E-01    4.3171021262220811E-02    1.2445063838184071E-01
C   -3.6454129487922293E-01   -4.3172472168231009E-02   -3.7555171501407369E-01
C    3.6453956382117081E-01    4.5682876987663801E-01   -1.2444914601202957E-01
C    1.3546184390332314E-01   -4.5682923570658340E-01    3.7554905462010124E-01
C    9.8043661800717663E-02   -3.2983601329438844E-01   -1.3605153163449524E-01
C    4.0195548861044766E-01    3.2983736155486965E-01    3.6394537120274023E-01
C   -4.0195652594516773E-01   -1.7016457834425613E-01    1.3605305042982921E-01
C   -9.8043565149030842E-02    1.7016239796976254E-01   -3.6394797871619328E-01
C   -9.8043785763004404E-02    3.2983612495296000E-01    1.3605158366442596E-01
C   -4.0195542739591028E-01   -3.2983733198356574E-01   -3.6394538663757831E-01
C    4.0195647627503628E-01    1.7016455060366906E-01   -1.3605310149970284E-01
C    9.8043579936659034E-02   -1.7016248161734798E-01    3.6394802236734747E-01
C    3.3004218032320069E-03   -1.3541571876354302E-01    1.0024737261459583E-01
C    4.9670064856057838E-01    1.3541740810805589E-01   -3.9975328641928459E-01
C   -4.9670062384701152E-01   -3.6458378226888061E-01   -1.0024799738572625E-01
C   -3.2997745101352085E-03    3.6458281313875468E-01    3.9975382250147640E-01
C   -3.3001691321564892E-03    1.3541566516182166E-01   -1.0024754664956066E-01
C   -4.9670060260180160E-01   -1.3541738983094240E-01    3.9975327116740950E-01
C    4.9670084296341338E-01    3.6458385889856093E-01    1.0024811674200716E-01
C    3.2999375092220202E-03   -3.6458279008425115E-01   -3.9975393071633653E-01
C    1.6118667748936510E-02   -2.5441416311299314E-01    1.0561223138807328E-01
C    4.8388056712991062E-01    2.5441555711302255E-01   -3.9438456041943720E-01
C   -4.8387875820916992E-01   -2.4558573234803277E-01   -1.0561662438038986E-01
C   -1.6121820343261328E-02    2.4558472854971206E-01    3.9438673397165686E-01
C   -1.6118519333333584E-02    2.5441408857611908E-01   -1.0561234106709957E-01
C   -4.8388051564425433E-01   -2.5441554259032489E-01    3.9438455276148926E-01
C    4.8387889784022470E-01    2.4558583309332652E-01    1.0561669120643676E-01
C    1.6121942810537953E-02   -2.4558468516313506E-01   -3.9438679474876359E-01
C    3.9865965132492293E-01    6.5734552079772274E-02    2.3866327445714050E-01
C    1.0134368023303057E-01   -6.5733889270863863E-02   -2.6133908400254940E-01
C   -1.0132679025246265E-01    4.3426873651675885E-01   -2.3866411715625818E-01
C   -3.9865952858585962E-01   -4.3426625710551503E-01    2.6133698197745620E-01
C   -3.9865959192696265E-01   -6.5734524664960312E-02   -2.3866330709400835E-01
C   -1.0134366324783974E-01    6.5733912408510814E-02    2.6133912414322641E-01
C    1.0132684265542735E-01   -4.3426866661137914E-01    2.3866420253801049E-01
C    3.9865957803495311E-01    4.3426618072513196E-01   -2.6133698216176493E-01
C    9.9075597853269720E-02   -1.3125231258147602E-01   -2.1483379332004471E-01
C    4.0092726857083072E-01    1.3125324569736380E-01    2.8516803705854776E-01
C   -4.0092830689205639E-01   -3.6874795853560532E-01    2.1483149201638144E-01
C   -9.9060485725119940E-02    3.6875007776875729E-01   -2.8516897802526686E-01
C   -9.9075513308335750E-02    1.3125232137959050E-01    2.1483379614763831E-01
C   -4.0092721148863503E-01   -1.3125321762251382E-01   -2.8516806691971580E-01
C    4.0092837327963804E-01    3.6874787608055198E-01   -2.1483149529632223E-01
C    9.9060550531064551E-02   -3.6874999556014537E-01    2.8516903859779441E-01
H    2.4461119742851575E-02   -3.2122046264602344E-01   -1.3392723186391980E-01
H    4.7553807093934480E-01    3.2122178384564509E-01    3.6606797594445528E-01
H   -4.7553901082603511E-01   -1.7878060192150266E-01    1.3393014841665157E-01
H   -2.4460974351170582E-02    1.7877783313035486E-01   -3.6607140248051317E-01
H   -2.4461250677264294E-02    3.2122059471584069E-01    1.3392720664004512E-01
H   -4.7553800300765303E-01   -3.2122171257699739E-01   -3.6606800346041068E-01
H    4.7553895530845397E-01    1.7878057677234077E-01   -1.3393020369220454E-01
H    2.4460994571486240E-02   -1.7877797646169269E-01    3.6607139317736459E-01
H    1.1812529248630861E-02   -7.8260364127816812E-02    7.9884574707859826E-02
H    4.8818976863330726E-01    7.8262434857401031E-02   -4.2011808739757894E-01
H   -4.8819066199905220E-01   -4.2173882193261319E-01   -7.9883105995228937E-02
H   -1.1809517344732030E-02    4.2173807426354387E-01    4.2011793718739227E-01
H   -1.1812047370685815E-02    7.8260261461381014E-02   -7.9884857308978319E-02
H   -4.8818970592283850E-01   -7.8262413612249199E-02    4.2011805382966272E-01
H    4.8819109832249480E-01    4.2173893685882263E-01    7.9883288003073621E-02
H    1.1809800490229649E-02   -4.2173802662981580E-01   -4.2011810179033859E-01
H    3.9052538903894464E-02   -3.0917878141185889E-01    8.6599604584083334E-02
H    4.6094616599000121E-01    3.0918041315883354E-01   -4.1339559629290673E-01
H   -4.6094369794877232E-01   -1.9082110040867481E-01   -8.6605399713584955E-02
H   -3.9056962816505836E-02    1.9082030038329117E-01    4.1339869405529595E-01
H   -3.9052423255477579E-02    3.0917868862763170E-01   -8.6599697490069516E-02
H   -4.6094611660363594E-01   -3.0918039675237541E-01    4.1339559894256550E-01
H    4.6094379796329032E-01    1.9082121956643663E-01    8.6605456219660870E-02
H    3.9057095345974485E-02   -1.9082025445038445E-01   -4.1339874257079295E-01
H    5.7274886634949403E-02    6.3592529488724986E-02   -4.2545964668788561E-01
H    4.4272976616061394E-01   -6.3595780221002027E-02    7.4542115031406148E-02
H   -4.4272796840886941E-01    4.3640608772473444E-01    4.2545945540993862E-01
H   -5.7272075972160948E-02   -4.3640638658612735E-01   -7.4539257686853308E-02
H   -5.7274903375033479E-02   -6.3592494410919187E-02    4.2545975323505569E-01
H   -4.4272972165898583E-01    6.3595753322350471E-02   -7.4542220605160955E-02
H    4.4272795071944143E-01   -4.3640599449516926E-01   -4.2545968796500588E-01
H    5.7272054809733422E-02    4.3640635666353539E-01    7.4539281481504321E-02
H    4.0990632288950901E-01    5.4779321555678592E-02    1.6887597917155708E-01
H    9.0097937057458916E-02   -5.4779088279427034E-02   -3.3112660738305544E-01
H   -9.0072880338202044E-02    4.4522441596993090E-01   -1.6887802315608177E-01
H   -4.0990640211027923E-01   -4.4522118545838246E-01    3.3112430639969387E-01
H   -4.0990623120063352E-01   -5.4779288036647680E-02   -1.6887600937627742E-01
H   -9.0097851533881154E-02    5.4779144546349516E-02    3.3112664626265470E-01
H    9.0072868645132961E-02   -4.4522434288476453E-01    1.6887812206484620E-01
H    4.0990656265399966E-01    4.4522108004190836E-01   -3.3112429344711702E-01
H    8.5012226142536923E-02   -1.8708945022982340E-01   -2.3706872509647028E-01
H    4.1499070085477963E-01    1.8709027965322630E-01    2.6293278943275644E-01
H   -4.1499324482211003E-01   -3.1291097590526978E-01    2.3706604011027696E-01
H   -8.4991793378778407E-02    3.1291359112221490E-01   -2.6293487707539526E-01
H   -8.5012161873106312E-02    1.8708945991884537E-01    2.3706872501426041E-01
H   -4.1499062302415857E-01   -1.8709025704935034E-01   -2.6293283073662060E-01
H    4.1499327680631637E-01    3.1291088788602556E-01   -2.3706605622137483E-01
H    8.4991959334278194E-02   -3.1291348360052740E-01    2.6293495883784279E-01
H    1.6006911399792151E-01    1.0903376923925101E-01    4.2929440949768161E-01
H    3.3993611914600969E-01   -1.0903621677874165E-01   -7.0704592634868418E-02
H   -3.3993421617382286E-01    3.9096615358601217E-01   -4.2929368884485858E-01
H   -1.6006827902149945E-01   -3.9096708622494497E-01    7.0706165489789793E-02
H   -1.6006906753186545E-01   -1.0903377095715427E-01   -4.2929430609918157E-01
H   -3.3993615973248997E-01    1.0903620112472572E-01    7.0704539136471553E-02
H    3.3993416470358773E-01   -3.9096615755003644E-01    4.2929346708757871E-01
H    1.6006828685818322E-01    3.9096715541624155E-01   -7.0706160340517632E-02
H    1.9568955989209424E-01    2.8815832578603817E-01    4.1937928615629871E-01
H    3.0431090841885566E-01   -2.8815546470669462E-01   -8.0624011819632330E-02
H   -3.0431025052237376E-01    2.1184335409323665E-01   -4.1937706236185163E-01
H   -1.9569011078098336E-01   -2.1184253170872944E-01    8.0619800647832002E-02
H   -1.9568946581696653E-01   -2.8815836698431035E-01   -4.1937926969588574E-01
H   -3.0431117410887465E-01    2.8815570725076778E-01    8.0624317968408840E-02
H    3.0431018734034387E-01   -2.1184352198359602E-01    4.1937719474316149E-01
H    1.9569000170703385E-01    2.1184249213084680E-01   -8.0619995545945997E-02
H    7.9448473901318262E-02    2.6411177787375134E-01   -2.2111146902368053E-01
H    4.2055407794841526E-01   -2.6411146375170796E-01    2.7888408094426737E-01
H   -4.2055656193551272E-01    2.3588892369898812E-01    2.2111775549904134E-01
H   -7.9441994532597621E-02   -2.3588681954003510E-01   -2.7888544319223679E-01
H   -7.9448236089330659E-02   -2.6411170734249251E-01    2.2111140717567440E-01
H   -4.2055400555461714E-01    2.6411147579958971E-01   -2.7888409791063312E-01
H    4.2055681863511446E-01   -2.3588892409991274E-01   -2.2111775399998465E-01
H    7.9442105746086220E-02    2.3588678233725777E-01    2.7888536315937551E-01
H   -3.4320999613612196E-01   -1.4119303005210327E-02   -4.3503084082431870E-01
H   -1.5679127481859370E-01    1.4117412536235123E-02    6.4971622065221404E-02
H    1.5680111913143885E-01   -4.8588155851389841E-01    4.3502611107127881E-01
H    3.4320722064260989E-01    4.8588209363196960E-01   -6.4970476047263803E-02
H    3.4321012175982296E-01    1.4119339581819287E-02    4.3503081926362724E-01
H    1.5679134703662151E-01   -1.4117457773836635E-02   -6.4971563423401407E-02
H   -1.5680101592560958E-01    4.8588169073905330E-01   -4.3502600212355164E-01
H   -3.4320710315649317E-01   -4.8588223368426237E-01    6.4970524990520528E-02
H   -2.0908722059085574E-01    3.2196080528871635E-01    3.3718994903499067E-01
H   -2.9090893897904702E-01   -3.2195752281441697E-01   -1.6281164397425488E-01
H    2.9091059273916198E-01    1.7804346828923037E-01   -3.3718822205882076E-01
H    2.0908544739347273E-01   -1.7803607595998547E-01    1.6281215283080941E-01
H    2.0908707960553813E-01   -3.2196070206770078E-01   -3.3719032036272140E-01
H    2.9090894688014984E-01    3.2195750681602614E-01    1.6281163936901705E-01
H   -2.9091065183351689E-01   -1.7804346830375095E-01    3.3718842072670208E-01
H   -2.0908539991121522E-01    1.7803607268718477E-01   -1.6281217288950195E-01
H   -3.7334907738208106E-01   -7.5811961205640224E-02    2.2744196782559245E-01
H   -1.2665100493768000E-01    7.5806965252185540E-02   -2.7256316140778031E-01
H    1.2665002325645477E-01   -4.2419019463933433E-01   -2.2743848738995004E-01
H    3.7334678411247946E-01    4.2418953494593969E-01    2.7255616281454215E-01
H    3.7334900955916450E-01    7.5811964178206737E-02   -2.2744208178677255E-01
H    1.2665103270528769E-01   -7.5806997621390107E-02    2.7256329258596074E-01
H   -1.2665005487708766E-01    4.2419023275311124E-01    2.2743872316177108E-01
H   -3.7334682098848121E-01   -4.2418953120382868E-01   -2.7255619363713496E-01
N    1.5776818819020874E-01   -2.8639763496961879E-01   -8.8354269951470762E-02
N    3.4223215140862051E-01    2.8640001276481697E-01    4.1164544631037231E-01
N   -3.4223264138338821E-01   -2.1360164416483585E-01    8.8353291999904826E-02
N   -1.5776760441783128E-01    2.1360145996879132E-01   -4.1164500141129862E-01
N   -1.5776835632832698E-01    2.8639775349783297E-01    8.8354337927710566E-02
N   -3.4223206934598016E-01   -2.8639999782442949E-01   -4.1164545196558194E-01
N    3.4223257693822157E-01    2.1360161489009352E-01   -8.8353349195374006E-02
N    1.5776758954626596E-01   -2.1360153430638198E-01    4.1164506204503892E-01
N   -3.7942312287945468E-01   -3.8371405565590833E-01    1.2805217289313880E-01
N   -1.2057517048859456E-01    3.8371487424127104E-01   -3.7194640690640268E-01
N    1.2057876549427853E-01   -1.1628602493410085E-01   -1.2805404897014586E-01
N    3.7942322981550514E-01    1.1628750787930056E-01    3.7194768466575573E-01
N    3.7942319111595602E-01    3.8371396622930276E-01   -1.2805217761379351E-01
N    1.2057522803534509E-01   -3.8371481034252342E-01    3.7194644912991864E-01
N   -1.2057873742469899E-01    1.1628602549537101E-01    1.2805406172364175E-01
N   -3.7942317629566696E-01   -1.1628746928928842E-01   -3.7194770878967126E-01
N   -4.5522877169004256E-01   -3.0729600368545235E-01   -6.0370726412775980E-02
N   -4.4771504297488454E-02    3.0729541565826424E-01    4.3963198290733918E-01
N    4.4771160203551721E-02   -1.9270340047010495E-01    6.0368781978556905E-02
N    4.5522942726034166E-01    1.9270558794275430E-01   -4.3963036367098540E-01
N    4.5522891132284671E-01    3.0729612201452744E-01    6.0370812139719544E-02
N    4.4771621206481864E-02   -3.0729536080917741E-01   -4.3963205002792999E-01
N   -4.4770994612958789E-02    1.9270330000471061E-01   -6.0368906635434649E-02
N   -4.5522938522002682E-01   -1.9270557013699569E-01    4.3963035510817955E-01
N    1.6551879888637758E-01    1.1749291672970810E-01   -3.5274366693745096E-01
N    3.3448105486917135E-01   -1.1749048420441141E-01    1.4725747589460852E-01
N   -3.3448124373539334E-01    3.8250853442611227E-01    3.5274440159537135E-01
N   -1.6551626412976869E-01   -3.8250682817744336E-01   -1.4725573863657501E-01
N   -1.6551879959184293E-01   -1.1749292254154087E-01    3.5274375022326293E-01
N   -3.3448100943935943E-01    1.1749048927160158E-01   -1.4725750987326067E-01
N    3.3448117438686931E-01   -3.8250848185118191E-01   -3.5274457522310049E-01
N    1.6551627988098150E-01    3.8250682721848789E-01    1.4725573704824960E-01
N    2.4744223336493695E-01    1.5465265593939576E-01   -4.6973641494746582E-01
N    2.5255805168283357E-01   -1.5464959989760199E-01    3.0264160680738113E-02
N   -2.5255808166449634E-01    3.4534986321561606E-01    4.6973785637020782E-01
N   -2.4744133930555548E-01   -3.4534863781510494E-01   -3.0263342911518738E-02
N   -2.4744220709733034E-01   -1.5465266313024043E-01    4.6973654134753295E-01
N   -2.5255803614708244E-01    1.5464960691782029E-01   -3.0264181126960155E-02
N    2.5255805419484284E-01   -3.4534984670628927E-01   -4.6973808925365851E-01
N    2.4744135020552752E-01    3.4534866040045287E-01    3.0263342998322236E-02
N    1.2452562245422398E-01   -1.0121436941112430E-02   -2.0341882920522106E-01
N    3.7547714910896318E-01    1.0122416455439279E-02    2.9658379832583642E-01
N   -3.7547519701088544E-01   -4.8987846815554525E-01    2.0341729231180883E-01
N   -1.2451920539524297E-01    4.8987988260736298E-01   -2.9658227200838749E-01
N   -1.2452554135254185E-01    1.0121438851447777E-02    2.0341887473595838E-01
N   -3.7547709058093609E-01   -1.0122394621600360E-02   -2.9658383133029764E-01
N    3.7547528096986826E-01    4.8987841095658352E-01   -2.0341728114332175E-01
N    1.2451924398440903E-01   -4.8987982179210637E-01    2.9658235859944099E-01
N    5.0184892219306783E-02    1.5635323434101989E-01   -1.6812698739591569E-01
N    4.4981525936990979E-01   -1.5635379631968754E-01    3.3187262708850696E-01
N   -4.4981568346087042E-01    3.4364684044737037E-01    1.6812898823185821E-01
N   -5.0183182611754792E-02   -3.4364518778149916E-01   -3.3187306203266448E-01
N   -5.0184689567278208E-02   -1.5635319692185493E-01    1.6812683213644153E-01
N   -4.4981521375489919E-01    1.5635381240153923E-01   -3.3187264177025183E-01
N    4.4981587120919264E-01   -3.4364682733138280E-01   -1.6812889028878475E-01
N    5.0183317249214800E-02    3.4364517155956004E-01    3.3187295660204552E-01
N    2.5957553931875266E-01    1.3084772052775889E-01   -1.6412554590730632E-01
N    2.4042466062443965E-01   -1.3084577617424617E-01    3.3587581707718872E-01
N   -2.4042447693502589E-01    3.6915233778922640E-01    1.6412633178827102E-01
N   -2.5957403579289995E-01   -3.6915326455221070E-01   -3.3587329156756507E-01
N   -2.5957557698753947E-01   -1.3084775841093732E-01    1.6412546236700179E-01
N   -2.4042464370891814E-01    1.3084570137166598E-01   -3.3587570667117311E-01
N    2.4042443652176745E-01   -3.6915219740918687E-01   -1.6412617858302000E-01
N    2.5957405760918062E-01    3.6915325087638029E-01    3.3587328474906314E-01
Zn    1.4027262884999206E-01   -1.8919083727993344E-01   -3.2358761831272287E-02
Zn    3.5972846988711266E-01    1.8919355255578302E-01    4.6764162599294251E-01
Zn   -3.5972833494062101E-01   -3.1080843571343408E-01    3.2357780117292338E-02
Zn   -1.4027215927491812E-01    3.1080867811629903E-01   -4.6763967280897351E-01
Zn   -1.4027258242890628E-01    1.8919090703860039E-01    3.2358732151896274E-02
Zn   -3.5972846566350120E-01   -1.8919354607229255E-01   -4.6764159186923826E-01
Zn    3.5972839153921021E-01    3.1080839166452551E-01   -3.2357716554334240E-02
Zn    1.4027213494623639E-01   -3.1080867547159968E-01    4.6763962337759413E-01
Zn    1.4639320229720976E-01    4.0458871089021375E-01    2.7394173277143447E-01
Zn    3.5360385830382346E-01   -4.0458980520568838E-01   -2.2605822787294702E-01
Zn   -3.5360458258947258E-01    9.5409284036271677E-02   -2.7394363275340589E-01
Zn   -1.4639601269928779E-01   -9.5410673476468574E-02    2.2605770814532855E-01
Zn   -1.4639311901816460E-01   -4.0458864984575799E-01   -2.7394174252239140E-01
Zn   -3.5360386481630013E-01    4.0458987052924628E-01    2.2605824502046390E-01
Zn    3.5360456828708486E-01   -9.5409290750098644E-02    2.7394365615582728E-01
Zn    1.4639606167348182E-01    9.5410610985013106E-02   -2.2605773572664620E-01
       SCALED  T
     &END COORD
     &KIND C
       BASIS_SET DZVP-GTH-PBE
       POTENTIAL GTH-PBE-q4
     &END KIND
     &KIND H
       BASIS_SET DZVP-GTH-PBE
       POTENTIAL GTH-PBE-q1
     &END KIND
     &KIND N
       BASIS_SET DZVP-GTH-PBE
       POTENTIAL GTH-PBE-q5
     &END KIND
     &KIND Zn
       BASIS_SET DZVP-MOLOPT-SR-GTH
       POTENTIAL GTH-PBE-q12
     &END KIND
     &TOPOLOGY
       NUMBER_OF_ATOMS  272
       MULTIPLE_UNIT_CELL  1 1 1
     &END TOPOLOGY
   &END SUBSYS
 &END FORCE_EVAL
 &VIBRATIONAL_ANALYSIS
   DX  1.0000000000000001E-3
   FULLY_PERIODIC
   NPROC_REP 128
 &END VIBRATIONAL_ANALYSIS
