 # Version information for this restart file 
 # current date 2017-10-17 18:04:17.383
 # current working dir /gpfs5r/workgpfs/rech/drd/rdrd007/johannes/series/ZIF-6/opt-deformed-5
 # Program compiled at                             Tue Oct  7 14:39:23 CEST 2014
 # Program compiled on                                                    ada337
 # Program compiled for                                 Linux-x86-64-gfortran.FL
 # Source code revision number                                         svn:13632
 &GLOBAL
   PRINT_LEVEL  MEDIUM
   PROJECT_NAME ZIF6
   RUN_TYPE VIBRATIONAL_ANALYSIS
 &END GLOBAL
 &FORCE_EVAL
   METHOD  QS
   STRESS_TENSOR  DIAGONAL_ANALYTICAL
   &DFT
     BASIS_SET_FILE_NAME ../../data/BASIS_SET
     BASIS_SET_FILE_NAME ../../data/BASIS_MOLOPT
     POTENTIAL_FILE_NAME ../../data/POTENTIAL
     &SCF
       MAX_SCF  15000
       EPS_SCF     1.0000000000000000E-10
       SCF_GUESS  RESTART
       &OT  T
         MINIMIZER  DIIS
         PRECONDITIONER  FULL_SINGLE_INVERSE
       &END OT
       &MIXING  T
         METHOD  PULAY_MIXING
         ALPHA     5.0000000000000000E-01
         NBUFFER  5
       &END MIXING
       &PRINT
         &RESTART  OFF
         &END RESTART
       &END PRINT
     &END SCF
     &QS
       EPS_DEFAULT     1.0000000000000000E-10
     &END QS
     &MGRID
       NGRIDS  4
       CUTOFF     2.5000000000000000E+03
       REL_CUTOFF     1.0000000000000000E+02
     &END MGRID
     &XC
       DENSITY_CUTOFF     1.0000000000000000E-10
       GRADIENT_CUTOFF     1.0000000000000000E-10
       TAU_CUTOFF     1.0000000000000000E-10
       &XC_FUNCTIONAL  NO_SHORTCUT
         &PBE  T
         &END PBE
       &END XC_FUNCTIONAL
       &VDW_POTENTIAL
         POTENTIAL_TYPE  PAIR_POTENTIAL
         &PAIR_POTENTIAL
           R_CUTOFF     1.6000000000000000E+01
           TYPE  DFTD3
           PARAMETER_FILE_NAME ../../data/dftd3.dat
           REFERENCE_FUNCTIONAL PBE
         &END PAIR_POTENTIAL
       &END VDW_POTENTIAL
     &END XC
   &END DFT
   &SUBSYS
     &CELL
       A     1.6843020404101296E+01    0.0000000000000000E+00    0.0000000000000000E+00
       B    -5.4368212047734872E+00    1.5941402432668776E+01    0.0000000000000000E+00
       C    -5.7030998821309256E+00   -7.9707010142270036E+00    1.3697806883191609E+01
       MULTIPLE_UNIT_CELL  1 1 1
     &END CELL
     &COORD
C   -4.9864578611759386E-01    3.5337310833194480E-01   -1.4679258301534140E-01
C    1.7956346647723942E-04   -3.5185044381915315E-01   -3.5319216333211517E-01
C   -3.5184479313965467E-01   -4.9864818021891522E-01   -3.5201447295182103E-01
C    3.5338005348770152E-01    1.7494979725116155E-04   -1.4796528959810884E-01
C   -5.0132853520903153E-01   -3.5335652868785683E-01    1.4681096705681768E-01
C   -1.5335383320361218E-04    3.5186601386948091E-01    3.5320865350934516E-01
C    3.5187039683475796E-01   -5.0133572844626362E-01    3.5203237132290571E-01
C   -3.5335257896116423E-01   -1.5836873151084396E-04    1.4798519270767421E-01
C    3.8044684227039205E-01    4.8049274780007645E-01   -3.9921118708928560E-01
C    3.7971956082130665E-01   -2.2033494734907658E-01   -1.0076924321797844E-01
C   -3.7969124689453537E-01    2.2035360971333953E-01    1.0078848207064781E-01
C   -3.8042215393567314E-01   -4.8047655611522572E-01    3.9923060226635515E-01
C   -4.8047175302922496E-01   -3.7969743786262816E-01   -1.0003982173818572E-01
C    2.2035894667015893E-01   -3.8042649954878272E-01   -3.9994051616276749E-01
C   -2.2033165762588952E-01    3.8044307892228768E-01    3.9995927150978433E-01
C    4.8049932862427347E-01    3.7971532473500852E-01    1.0005942271407345E-01
C   -4.8913919014656060E-01    2.7618510360542103E-01   -2.7399326009678288E-01
C    5.0192457476254893E-02   -2.1514351795803721E-01   -2.2599089754962542E-01
C    4.9415659204864143E-01    2.1786464463298827E-01   -2.3282688264382950E-01
C   -4.9294036035944830E-02   -2.7301478833600473E-01   -2.6715617143924708E-01
C   -2.7301075124283847E-01    4.9415017284245050E-01   -2.2370561391541105E-01
C    2.1787282944095321E-01   -4.9299717184751277E-02   -2.7627786673151961E-01
C   -2.1513882601915280E-01   -4.8914391742034014E-01   -2.6532020896576430E-01
C    2.7619375857635081E-01    5.0186903885173967E-02   -2.3466230855427028E-01
C    4.8916468954606829E-01   -2.7616845650516475E-01    2.7401148973297962E-01
C   -5.0165641060949132E-02    2.1515799691306298E-01    2.2600913047378213E-01
C   -4.9413094498238336E-01   -2.1784803489758658E-01    2.3284510071643263E-01
C    4.9320929292382909E-02    2.7302917647299962E-01    2.6717465467115470E-01
C    2.7303529437456375E-01   -4.9413457176603925E-01    2.2372355869314003E-01
C   -2.1784541637218041E-01    4.9317629813562691E-02    2.7629857804814489E-01
C    2.1516397421745792E-01    4.8915966633179098E-01    2.6533878443449205E-01
C   -2.7616583651300086E-01   -5.0168976053975162E-02    2.3468363604884857E-01
C    3.3200300567673036E-01    3.3196024250962142E-01   -4.2622953570055827E-01
C    2.5820552184265777E-01   -2.4176085850236795E-01   -7.3750674415748757E-02
C   -3.2970315504238806E-01    2.4194082769813177E-01    1.7017213828895094E-03
C   -2.5974695631962263E-01   -3.3140220515860930E-01   -5.0168341195208110E-01
C   -3.3139692922679809E-01   -3.2971088454881065E-01   -7.1638738843277872E-02
C    2.4194914007794566E-01   -2.5975117157529098E-01   -4.2833954880728031E-01
C   -2.4175813301272164E-01    3.3199814078216866E-01   -4.9995305043803884E-01
C    3.3196678210713143E-01    2.5820158332470489E-01   -3.0628365058979471E-05
C   -3.3197858801222335E-01   -3.3194368407653108E-01    4.2625011445679900E-01
C   -2.5817853321281764E-01    2.4177533940464507E-01    7.3768240034594521E-02
C    3.2973078093827840E-01   -2.4192554054058285E-01   -1.6839836162640949E-03
C    2.5977162490413641E-01    3.3141835699233679E-01    5.0170334136036121E-01
C    3.3142447157627375E-01    3.2972645289086272E-01    7.1658806637631411E-02
C   -2.4192361339895632E-01    2.5976650757911535E-01    4.2835648752203409E-01
C    2.4178371277044461E-01   -3.3198308547434097E-01    4.9997032558157012E-01
C   -3.3193821854773620E-01   -2.5818582438542431E-01    5.1538622034664337E-05
H   -4.9926476796989772E-01    4.0967639537207551E-01   -9.0343866701171560E-02
H    3.3838437176053615E-05   -4.0891782132406240E-01   -4.0964152738120357E-01
H   -4.0891154749621317E-01   -4.9926563886444153E-01   -4.0893622953830644E-01
H    4.0968241078925349E-01    2.9785260213861797E-05   -9.1041813073775749E-02
H    4.9929057634592089E-01   -4.0965974843146075E-01    9.0362310124908571E-02
H   -7.9204731287529917E-06    4.0893405195374655E-01    4.0965704221541183E-01
H    4.0893758629332139E-01   -5.0071798476291129E-01    4.0895396851425631E-01
H   -4.0965515132944247E-01   -1.4043176233213828E-05    9.1061086172690112E-02
H    4.2466212667053960E-01   -4.4059317926987562E-01   -3.6515145782076297E-01
H    4.2457388771281351E-01   -2.1017890140827508E-01   -1.3482892026891555E-01
H   -4.2454504999119602E-01    2.1019958735330707E-01    1.3484896721821965E-01
H   -4.2463744727945824E-01    4.4060932246800333E-01    3.6517052605120143E-01
H    4.4061383954406674E-01   -4.2455056402736813E-01   -1.3473972120444477E-01
H    2.1020347612826720E-01   -4.2464172741226813E-01   -3.6524165097204642E-01
H   -2.1017522975793143E-01    4.2465901805588879E-01    3.6526125057576114E-01
H   -4.4058648880245638E-01    4.2456970670979760E-01    1.3475902282163268E-01
H   -4.7908802404112943E-01    2.6384431953960297E-01   -3.3725799699972298E-01
H    1.0111637437849909E-01   -1.4182743800098602E-01   -1.6272647090564468E-01
H    4.8499842543289307E-01    1.4486523356557632E-01   -2.5513093065772552E-01
H   -9.9989068131642128E-02   -2.5986973918684758E-01   -2.4485102783823226E-01
H   -2.5986669669142665E-01    4.8498932488321139E-01   -1.5986604780303756E-01
H    1.4487358707944786E-01   -9.9995123417292650E-02   -3.4011931661674433E-01
H   -1.4182299885598759E-01   -4.7909306051632972E-01   -2.4292776122830140E-01
H    2.6385395958009550E-01    1.0111050097425558E-01   -2.5705545578831668E-01
H    4.7911330054842749E-01   -2.6382766596669838E-01    3.3727609295518585E-01
H   -1.0108931838524757E-01    1.4184155414228949E-01    1.6274524265555457E-01
H   -4.8497260101379824E-01   -1.4484855582910258E-01    2.5514916961368400E-01
H    1.0001623838381093E-01    2.5988351228649437E-01    2.4487038049756604E-01
H    2.5989055014282703E-01   -4.8497405629439427E-01    1.5988374466010341E-01
H   -1.4484633071907765E-01    1.0001365166950492E-01    3.4014014326544628E-01
H    1.4184816380004267E-01    4.7910872012994155E-01    2.4294687545290103E-01
H   -2.6382558560994529E-01   -1.0109192370797795E-01    2.5707765554252543E-01
H    3.3494359225411763E-01    2.7274630037472863E-01   -4.1407503475451568E-01
H    1.8683712485844567E-01   -2.5097488591329264E-01   -8.5904831773568946E-02
H   -3.3177724963706801E-01    2.5135943592801180E-01   -6.0144683164431105E-02
H   -1.8848156909027938E-01   -2.7163026163237203E-01   -4.3983734842300620E-01
H   -2.7162481930100735E-01   -3.3178572359532277E-01   -8.3131447215545815E-02
H    2.5136888460415213E-01   -1.8848567408861644E-01   -4.1684609843486836E-01
H   -2.5097186377455272E-01    3.3493839704405781E-01   -4.3779850838310991E-01
H    2.7275294460264976E-01    1.8683335029963938E-01   -6.2185625754144706E-02
H   -3.3491935548853513E-01   -2.7272943210373279E-01    4.1409634465932660E-01
H   -1.8681082067203186E-01    2.5098741984384498E-01    8.5921777029513063E-02
H    3.3180491229892695E-01   -2.5134520221861517E-01    6.0161923613927637E-02
H    1.8850631722040295E-01    2.7164631509211101E-01    4.3985724433478984E-01
H    2.7165201828787200E-01    3.3180028673900902E-01    8.3151360389496234E-02
H   -2.5134426337507904E-01    1.8850051101468701E-01    4.1686201577837489E-01
H    2.5099701991006340E-01   -3.3492402241250252E-01    4.3781541079701214E-01
H   -2.7272357168075584E-01   -1.8681843658500330E-01    6.2207344527383662E-02
N   -4.8476100894595264E-01    3.6202478450385200E-01   -2.1889489463086279E-01
N    8.0933492971910631E-02   -2.6586303896224628E-01   -2.8109021794030503E-01
N    4.8831438228669000E-01    2.6754163729031261E-01   -1.5206253129996392E-01
N   -8.0381580046244155E-02   -3.5962107109841746E-01   -3.4792093711753647E-01
N   -3.5961641189411664E-01    4.8830957901664568E-01   -2.7922449739700195E-01
N    2.6754871316119017E-01   -8.0386674915454814E-02   -2.2075722045420207E-01
N   -2.6585732300364295E-01   -4.8476327079363757E-01   -3.4678052413490684E-01
N    3.6203257669832156E-01    8.0928600693343400E-02   -1.5319962083573882E-01
N    4.8478653571198904E-01   -3.6200817634806443E-01    2.1891323826082365E-01
N   -8.0907083322656115E-02    2.6587828108244038E-01    2.8110723345440464E-01
N   -4.8828863589858029E-01   -2.6752507727233799E-01    1.5208085381037861E-01
N    8.0408053231174115E-02    3.5963616960108097E-01    3.4793831958398114E-01
N    3.5964124263469488E-01   -4.8829373870221005E-01    2.7924201565624124E-01
N   -2.6752159699407418E-01    8.0403671311199382E-02    2.2077696577553887E-01
N    2.6588317691934238E-01    4.8477932909299648E-01    3.4679905055801336E-01
N   -3.6200464585095909E-01   -8.0911486388025686E-02    1.5322045435091478E-01
N    4.0827214487501551E-01    4.2685209025664572E-01   -3.6366779096855140E-01
N    2.9053547509350641E-01   -2.2805299286689046E-01   -1.3631238324411335E-01
N   -4.0651024626398702E-01    2.2833696951301724E-01    1.9447849008605297E-02
N   -2.9109793338761597E-01   -4.2595534162334020E-01    4.8057094086146601E-01
N   -4.2595050054334122E-01   -4.0651727651594449E-01   -1.3484224175941439E-01
N    2.2834333739094978E-01   -2.9110205575486736E-01   -3.6513747310682620E-01
N   -2.2804941852889499E-01    4.0826814319408350E-01    4.8142548070083058E-01
N    4.2685890637541629E-01    2.9053157122562023E-01    1.8592936456230974E-02
N   -4.0824769063753213E-01   -4.2683551253048069E-01    3.6368797960186872E-01
N   -2.9050807721124222E-01    2.2806958706463110E-01    1.3633085033773404E-01
N    4.0653868831015444E-01   -2.2831908394456457E-01   -1.9429061094025958E-02
N    2.9112280118925149E-01    4.2597125361237287E-01   -4.8055174517474691E-01
N    4.2597743449686570E-01    4.0653420477405561E-01    1.3486147990664116E-01
N   -2.2831672045169263E-01    2.9111837497822024E-01    3.6515537610303422E-01
N    2.2807601074805009E-01   -4.0825231789540883E-01   -4.8140709768703044E-01
N   -4.2683036327470697E-01   -2.9051436163585637E-01   -1.8572377033098022E-02
Zn   -4.6733059310523406E-01    4.6959653844136079E-01   -2.4912588815877135E-01
Zn    2.1873744576465171E-01   -2.1819957482281280E-01   -2.5085593270298878E-01
Zn    4.6960294859728702E-01    2.1873230904235857E-01   -6.3059421225344608E-02
Zn   -2.1819470018215048E-01   -4.6733473157785366E-01   -4.3692181366408345E-01
Zn    4.6735611971912450E-01   -4.6957978790167498E-01    2.4914449404128566E-01
Zn   -2.1871053326699888E-01    2.1821598068461870E-01    2.5087412802216175E-01
Zn   -4.6957491762245834E-01   -2.1871487272269829E-01    6.3079006196585616E-02
Zn    2.1822069986881648E-01    4.6735032562378664E-01    4.3694009902114650E-01
       SCALED  T
     &END COORD
     &KIND C
       BASIS_SET DZVP-GTH-PBE
       POTENTIAL GTH-PBE-q4
     &END KIND
     &KIND H
       BASIS_SET DZVP-GTH-PBE
       POTENTIAL GTH-PBE-q1
     &END KIND
     &KIND N
       BASIS_SET DZVP-GTH-PBE
       POTENTIAL GTH-PBE-q5
     &END KIND
     &KIND Zn
       BASIS_SET DZVP-MOLOPT-SR-GTH
       POTENTIAL GTH-PBE-q12
     &END KIND
     &TOPOLOGY
       NUMBER_OF_ATOMS  136
       MULTIPLE_UNIT_CELL  1 1 1
     &END TOPOLOGY
   &END SUBSYS
 &END FORCE_EVAL
 &VIBRATIONAL_ANALYSIS
   DX  1.0000000000000001E-3
   FULLY_PERIODIC
   NPROC_REP 128
 &END VIBRATIONAL_ANALYSIS
