 # Version information for this restart file 
 # current date 2017-10-13 09:12:09.322
 # current working dir /gpfs5r/workgpfs/rech/drd/rdrd007/johannes/series/ZIF-77/opt-2500-atomonly
 # Program compiled at                             Tue Oct  7 14:39:23 CEST 2014
 # Program compiled on                                                    ada337
 # Program compiled for                                 Linux-x86-64-gfortran.FL
 # Source code revision number                                         svn:13632
 &GLOBAL
   PRINT_LEVEL  MEDIUM
   PROJECT_NAME ZIF77
   RUN_TYPE VIBRATIONAL_ANALYSIS
 &END GLOBAL
 &FORCE_EVAL
   METHOD  QS
   STRESS_TENSOR  DIAGONAL_ANALYTICAL
   &DFT
     BASIS_SET_FILE_NAME ../../data/BASIS_SET
     BASIS_SET_FILE_NAME ../../data/BASIS_MOLOPT
     POTENTIAL_FILE_NAME ../../data/POTENTIAL
     &SCF
       MAX_SCF  15000
       EPS_SCF     1.0000000000000000E-10
       SCF_GUESS  RESTART
       &OT  T
         MINIMIZER  DIIS
         PRECONDITIONER  FULL_SINGLE_INVERSE
       &END OT
       &MIXING  T
         METHOD  PULAY_MIXING
         ALPHA     5.0000000000000000E-01
         NBUFFER  5
       &END MIXING
       &PRINT
         &RESTART  LOW
         &END RESTART
       &END PRINT
     &END SCF
     &QS
       EPS_DEFAULT     1.0000000000000000E-10
     &END QS
     &MGRID
       NGRIDS  4
       CUTOFF     2.5000000000000000E+03
       REL_CUTOFF     1.0000000000000000E+02
     &END MGRID
     &XC
       DENSITY_CUTOFF     1.0000000000000000E-10
       GRADIENT_CUTOFF     1.0000000000000000E-10
       TAU_CUTOFF     1.0000000000000000E-10
       &XC_FUNCTIONAL  NO_SHORTCUT
         &PBE  T
         &END PBE
       &END XC_FUNCTIONAL
       &VDW_POTENTIAL
         POTENTIAL_TYPE  PAIR_POTENTIAL
         &PAIR_POTENTIAL
           R_CUTOFF     1.6000000000000000E+01
           TYPE  DFTD3
           PARAMETER_FILE_NAME ../../data/dftd3.dat
           REFERENCE_FUNCTIONAL PBE
         &END PAIR_POTENTIAL
       &END VDW_POTENTIAL
     &END XC
   &END DFT
   &SUBSYS
     &CELL
       A     1.1248997581422829E+01    0.0000000000000000E+00    0.0000000000000000E+00
       B     5.6244987907114137E+00    1.6690667635444449E+01    0.0000000000000000E+00
       C     5.6244987907114137E+00    1.8369666702088436E+00    1.6589271821554270E+01
       MULTIPLE_UNIT_CELL  1 1 1
     &END CELL
     &COORD
C    2.8982720416988417E-01    8.4144008131840176E-01    8.6880604890509905E-01
C   -6.0669461488360721E-05    8.6880526156016846E-01    8.4144953223795516E-01
C    2.1017215767659841E-01    6.3119384695985914E-01    6.5856021526290320E-01
C    5.0006020307563359E-01    6.5855019081736699E-01    6.3119480558972407E-01
C    7.1017280709031561E-01    1.5855991559193744E-01    1.3119394942993240E-01
C    1.0000606677542623E+00    1.3119473573688542E-01    1.5855046577288687E-01
C    7.8982784339118584E-01    3.6880615213005619E-01    3.4143978865875241E-01
C    4.9993979879305084E-01    3.4144980817297871E-01    3.6880519363361963E-01
C    3.2046986507674347E-01    8.2393217425095555E-01    9.4332228029629539E-01
C    9.1229276437384188E-01    9.4332321343121828E-01    8.2394073658782918E-01
C    1.7952957579641626E-01    5.5667758837068027E-01    6.7606820054966854E-01
C    5.8770695842249510E-01    6.7605891188444700E-01    5.5667690773533807E-01
C    6.7953014180295479E-01    1.7606782333421692E-01    5.6677719277115762E-02
C    8.7707237980973268E-02    5.6676784572512864E-02    1.7605925876320475E-01
C    8.2047041448140523E-01    4.4332241396210931E-01    3.2393180568608515E-01
C    4.1229304882617374E-01    3.2394108769924052E-01    4.4332309407682341E-01
C    3.5410686252924206E-01    7.1262654785832624E-01    8.9683249339661608E-01
C    3.6436102258763925E-02    8.9682550435759467E-01    7.1263617061822160E-01
C    1.4589289272694422E-01    6.0316739484373882E-01    7.8737376360418132E-01
C    4.6356381951335424E-01    7.8736353627675915E-01    6.0317458051981521E-01
C    6.4589314507807294E-01    2.8737344980161128E-01    1.0316750580355585E-01
C    9.6356390001764347E-01    1.0317448933257567E-01    2.8736382680873307E-01
C    8.5410710729825223E-01    3.9683260634547346E-01    2.1262624147002079E-01
C    5.3643618106228996E-01    2.1263646259630381E-01    3.9682541903129925E-01
C    2.4640901069096863E-01    8.0460046798898999E-01    1.9540327277789163E-01
C    7.5359100174696170E-01    1.9539951329781324E-01    8.0459672360596424E-01
C    2.5359086834275324E-01    3.0459684010450444E-01    6.9539963914832192E-01
C    7.4640911064305615E-01    6.9540317204028801E-01    3.0460037028200776E-01
C    1.5117835405505153E-01    7.0955247529824594E-01    2.3380454925585722E-01
C    9.0547224238384638E-01    2.3380384263460896E-01    7.0955468764256957E-01
C    3.4882174341277994E-01    2.6619539578557150E-01    7.9044752592644918E-01
C    5.9452778519766070E-01    7.9044530080551756E-01    2.6619622127117459E-01
C    8.4882164651063863E-01    2.9044751217996784E-01    7.6619545209167839E-01
C    9.4527764542888693E-02    7.6619614828851279E-01    2.9044531041774463E-01
C    6.5117824411424552E-01    7.3380460807349523E-01    2.0955248021882086E-01
C    4.0547220392074645E-01    2.0955471061623715E-01    7.3380377749434811E-01
C    9.4654007838961385E-02    6.2998795458942725E-01    9.3924606023971846E-02
C    1.8144583786298846E-01    9.3922816708460602E-02    6.2998687448664747E-01
C    4.0534586613747148E-01    4.0607517251676051E-01    8.7001248113724461E-01
C    3.1855425354976136E-01    8.7001272459913614E-01    4.0607738235841928E-01
C    9.0534598886238971E-01    3.7001204742345845E-01    9.0607539846984553E-01
C    8.1855416459061758E-01    9.0607718424730321E-01    3.7001312226619798E-01
C    5.9465413542610679E-01    5.9392482544917835E-01    1.2998752093227078E-01
C    6.8144574876091646E-01    1.2998727409692473E-01    5.9392261547651670E-01
C    1.3763398922554729E-01    5.0453457885821096E-01    1.4171764222695171E-01
C    2.1612333145678095E-01    1.4171608980199746E-01    5.0453376908193226E-01
C    3.6236617078726474E-01    3.5828136448578896E-01    9.9546563911254704E-01
C    2.8387611131241530E-01    9.9546603345175422E-01    3.5828482523101318E-01
C    8.6236600237913308E-01    4.9546542512658626E-01    8.5828236646031253E-01
C    7.8387667046897103E-01    8.5828391795728265E-01    4.9546622843734506E-01
C    6.3763383641255866E-01    6.4171863040971233E-01    4.5343630534565990E-03
C    7.1612389709590440E-01    4.5339618206021032E-03    6.4171516353525992E-01
C    2.5351277210143497E-01    5.2839307472188879E-01    1.1623010036818474E-01
C    1.0187670840392668E-01    1.1622507408188897E-01    5.2839237009209017E-01
C    2.4648734936422961E-01    3.8376899837290274E-01    9.7160718047025996E-01
C    3.9812281251728726E-01    9.7160739790017348E-01    3.8377576184596501E-01
C    7.4648722547470414E-01    4.7160692354864020E-01    8.8376989881038726E-01
C    8.9812330097743653E-01    8.8377492577553407E-01    4.7160762532011591E-01
C    7.5351265500002684E-01    6.1623100389866958E-01    2.8392824205630763E-02
C    6.0187718682701052E-01    2.8392603266917588E-02    6.1622423624591205E-01
H    2.5423224012733703E-01    8.9984239920029729E-01    8.3560089773002921E-01
H    1.0339639806224599E-02    8.3560207719033852E-01    8.9985215267545737E-01
H    2.4576690515129840E-01    6.6439902128635475E-01    6.0015786802944726E-01
H    4.8965971858018825E-01    6.0014759571342891E-01    6.6439797823709446E-01
H    7.4576776745050621E-01    1.0015759757286671E-01    1.6439910154505608E-01
H    9.8966036283794145E-01    1.6439792379227167E-01    1.0014784591608430E-01
H    7.5423309528647220E-01    3.3560097717889281E-01    3.9984213538584257E-01
H    5.1034028775028872E-01    3.9985240294770263E-01    3.3560202218387303E-01
H    3.1580416525153804E-01    8.6483064070108939E-01    9.8418400787469129E-01
H    8.3520667251487757E-01    9.8418870931094260E-01    8.6483895571331948E-01
H    1.8419517355815951E-01    5.1581584841305594E-01    6.3516977835842947E-01
H    6.6479297460369635E-01    6.3516065555953516E-01    5.1581141475728487E-01
H    6.8419584695580338E-01    1.3516935777974079E-01    1.5815989211892468E-02
H    1.6479332409113859E-01    1.5811287229091819E-02    1.3516103853207265E-01
H    8.1580481282232986E-01    4.8418415455024522E-01    3.6483022840632029E-01
H    3.3520703308853839E-01    3.6483934386167927E-01    4.8418858744824494E-01
H    1.2986359766399203E-01    6.5267294164815692E-01    2.3537460388454176E-01
H    9.8210164545841017E-01    2.3537422251100820E-01    6.5267761261001556E-01
H    3.7013662497222161E-01    2.6462524084052119E-01    8.4732704143186566E-01
H    5.1789836959482605E-01    8.4732238556978956E-01    2.6462594940904399E-01
H    8.7013640116309277E-01    3.4732704506734791E-01    7.6462540376487387E-01
H    1.7898358042740592E-02    7.6462577481827543E-01    3.4732238466768195E-01
H    6.2986336955808375E-01    7.3537475923627482E-01    1.5267296329512811E-01
H    4.8210161939017104E-01    1.5267762498950838E-01    7.3537404498528214E-01
H    1.2004115874932886E-01    4.4641410541657811E-01    1.7027847688615411E-01
H    2.6327369936055589E-01    1.7027769821104974E-01    4.4641312397247218E-01
H    3.7995915771900057E-01    3.2972019292146076E-01    5.3585995741328676E-02
H    2.3672547420694601E-01    5.3586784212205710E-02    3.2972352208268041E-01
H    8.7995882941348669E-01    5.5358590065364921E-01    8.2972153702449702E-01
H    7.3672629938642442E-01    8.2972231407282782E-01    5.5358687527650163E-01
H    6.2004085266907993E-01    6.7027979982655583E-01    9.4641400516024166E-01
H    7.6327454199944755E-01    9.4641320839038912E-01    6.7027645840702477E-01
H    3.5352147538006906E-01    4.9421341457488188E-01    1.1685275854584687E-01
H    3.5426298952058094E-02    1.1684585292843992E-01    4.9421251256077231E-01
H    1.4647872480474150E-01    3.8314608273130757E-01    5.7867560956282611E-03
H    4.6457298686896648E-01    5.7873296568846308E-03    3.8315521618424286E-01
H    6.4647852290185925E-01    5.0578658131636844E-01    8.8314723695820707E-01
H    9.6457371489618426E-01    8.8315414453527152E-01    5.0578748068162316E-01
H    8.5352127919630594E-01    6.1685392265044825E-01    9.9421325107030312E-01
H    5.3542700802891319E-01    9.9421267331408747E-01    6.1684478518339059E-01
N    3.1098198097756458E-01    7.7004683752411884E-01    8.4035112469174233E-01
N    7.8623666827533301E-02    8.4034536275932159E-01    7.7005687353726893E-01
N    1.8901751603110878E-01    6.5964880714729701E-01    7.2995341709257211E-01
N    4.2137603125699269E-01    7.2994288631423077E-01    6.5965469504602503E-01
N    6.8901802248847033E-01    2.2995315966481686E-01    1.5964887553530646E-01
N    9.2137634338372743E-01    1.5965463728273294E-01    2.2994312553655993E-01
N    8.1098248393829919E-01    3.4035119281109305E-01    2.7004658644687674E-01
N    5.7862397744808303E-01    2.7005711233261653E-01    3.4034530789330991E-01
N    3.6083318381199847E-01    7.4196345491268179E-01    9.6081950014639239E-01
N    9.3639392587326986E-01    9.6081642747269191E-01    7.4197202413510899E-01
N    1.3916654222366753E-01    5.3918035351818039E-01    7.5803692992725646E-01
N    5.6360604042098039E-01    7.5802761517203154E-01    5.3918370390902670E-01
N    6.3916682440971773E-01    2.5803654266761089E-01    3.9180498877032371E-02
N    6.3606079242681385E-02    3.9183568038652750E-02    2.5802797091896157E-01
N    8.6083344940066775E-01    4.6081964959011223E-01    2.4196307648539456E-01
N    4.3639396648822115E-01    2.4197238450149169E-01    4.6081629813873476E-01
N    3.9682518879930057E-01    6.2905165437566635E-01    8.8675460929557792E-01
N    8.7360131372543393E-02    8.8674205047556354E-01    6.2906252593604028E-01
N    1.0317479678871860E-01    6.1324525943530894E-01    8.7094865867543181E-01
N    4.1264000539517087E-01    8.7093717736623855E-01    6.1325806299437002E-01
N    6.0317481385529170E-01    3.7094834288688205E-01    1.1324539188506519E-01
N    9.1263987933235291E-01    1.1325794467665951E-01    3.7093747142701344E-01
N    8.9682519982532438E-01    3.8675474419563888E-01    1.2905134591276204E-01
N    5.8735999944149619E-01    1.2906282111404679E-01    3.8674193874585699E-01
N    2.4703131864111000E-01    7.3468569501450842E-01    1.7330789573801372E-01
N    8.4499084102775046E-01    1.7330362409739641E-01    7.3468619028962923E-01
N    2.5296870877058297E-01    3.2669210083833361E-01    7.6531443164740887E-01
N    6.5500930942725311E-01    7.6531368094010299E-01    3.2669638077018742E-01
N    7.5296868528455030E-01    2.6531428694328407E-01    8.2669210434293505E-01
N    1.5500916189712038E-01    8.2669636886611708E-01    2.6531379864726545E-01
N    7.4703127818827475E-01    6.7330790590181022E-01    2.3468557888543712E-01
N    3.4499067451969456E-01    2.3468633509410292E-01    6.7330362007028244E-01
N    3.4117068692610286E-01    8.4696232423283324E-01    1.5304862706208436E-01
N    6.5882931694659830E-01    1.5303765917391632E-01    8.4695135469965799E-01
N    1.5882905909221390E-01    3.4695157531127785E-01    6.5303790325262323E-01
N    8.4117092203626675E-01    6.5304844767761838E-01    3.4696210765963148E-01
N    2.2505048022280538E-01    6.0836908878646967E-01    8.6590543760381833E-02
N    8.0004564770011000E-02    8.6584791616526768E-02    6.0836820802692959E-01
N    2.7494945889350902E-01    4.1340904804727163E-01    8.9163130245361055E-01
N    4.1999536882527772E-01    8.9163143306496662E-01    4.1341558486006941E-01
N    7.7494951951168956E-01    3.9163090864339317E-01    9.1340945270059593E-01
N    9.1999544393530530E-01    9.1341520343624294E-01    3.9163178626918760E-01
N    7.2505054050799045E-01    5.8659095557263363E-01    1.0836870247833756E-01
N    5.8000462640815376E-01    1.0836856948594363E-01    5.8658441811244422E-01
N    3.7588409077740290E-02    5.6929061989993879E-01    1.2727093646203799E-01
N    2.6585992404777259E-01    1.2727151453312352E-01    5.6928947304519761E-01
N    4.6241159359865569E-01    3.7272850931380297E-01    9.3070971061663144E-01
N    2.3413987746167919E-01    9.3071022618749244E-01    3.7272899828769090E-01
N    9.6241158176139652E-01    4.3070938554837929E-01    8.7272907585608928E-01
N    7.3414007391003899E-01    8.7272849250666029E-01    4.3071052615202188E-01
N    5.3758841217250886E-01    6.2727148242153286E-01    6.9290288887455309E-02
N    7.6586013354178117E-01    6.9289768219933726E-02    6.2727098849357932E-01
N    2.3587391798067535E-02    7.0845385434412622E-01    6.6787025524423504E-02
N    2.0118176746066913E-01    6.6788328699817365E-02    7.0845357016594623E-01
N    4.7641234173165148E-01    4.3321318843370443E-01    7.9154672062414044E-01
N    2.9881872344502858E-01    7.9154590119573764E-01    4.3321147803565280E-01
N    9.7641260806671970E-01    2.9154614753769093E-01    9.3321297657207525E-01
N    7.9881823408479713E-01    9.3321167287832596E-01    2.9154642685199061E-01
N    5.2358766084747099E-01    5.6678680443589424E-01    2.0845327957058954E-01
N    7.0118127854618773E-01    2.0845409785212538E-01    5.6678852204904207E-01
O    3.8910388356638653E-01    6.0830882975568290E-01    8.2415872069027651E-01
O    1.7841836549935097E-01    8.2414522178729255E-01    6.0832070927818904E-01
O    1.1089592095714279E-01    6.7584123009309316E-01    8.9169143536869633E-01
O    3.2158160710082262E-01    8.9167904192703396E-01    6.7585480318232860E-01
O    6.1089612072709698E-01    3.9169116704799367E-01    1.7584128027429724E-01
O    8.2158164371910536E-01    1.7585477234952113E-01    3.9167928984917311E-01
O    8.8910408281657227E-01    3.2415877163250090E-01    1.0830856869807544E-01
O    6.7841839610804666E-01    1.0832095699399405E-01    3.2414519778445339E-01
O    4.4255641002570806E-01    5.7980609196847932E-01    9.3998511108251726E-01
O    3.7635929256038869E-02    9.3996820304600093E-01    5.7981701027604293E-01
O    5.7443897064095695E-02    5.6001467082178868E-01    9.2019427382085639E-01
O    4.6236448752659060E-01    9.2018264565899244E-01    5.6003200073875259E-01
O    5.5744359580789704E-01    4.2019390556987418E-01    6.0014889055325288E-02
O    9.6236408052809597E-01    6.0031790889330645E-02    4.2018298651237707E-01
O    9.4255610179480465E-01    4.3998533236126225E-01    7.9805731553499570E-02
O    5.3763551511369045E-01    7.9817353366226515E-02    4.3996800051995560E-01
O    8.1698372719656603E-02    7.6290108175063298E-01    4.3044214364073831E-02
O    1.1237031414199572E-01    4.3040053021264332E-02    7.6289917528520057E-01
O    4.1830130171386432E-01    4.5695628384563997E-01    7.3709953044971888E-01
O    3.8763044443565364E-01    7.3710025688149727E-01    4.5695946122708136E-01
O    9.1830163024315770E-01    2.3709891850503428E-01    9.5695578458213304E-01
O    8.8762969387173851E-01    9.5695994000241469E-01    2.3710081930892843E-01
O    5.8169869475901048E-01    5.4304371806296658E-01    2.6290047290511004E-01
O    6.1236955383184255E-01    2.6289974393200838E-01    5.4304054410418956E-01
O    4.2648054977485983E-01    8.1932564776238692E-01    9.0963906309220258E-02
O    6.6327550295623094E-01    9.0944142480558474E-02    8.1931482121577448E-01
O    7.3519040413095482E-02    4.0903613149212287E-01    6.8067484451274363E-01
O    8.3672467426067421E-01    6.8068471471818126E-01    4.0905579148741467E-01
O    5.7351947336934517E-01    1.8067431517861177E-01    9.0903609103171223E-01
O    3.3672450483552163E-01    9.0905584340453427E-01    1.8068515229590901E-01
O    9.2648092080042743E-01    5.9096387831679031E-01    3.1932518528702031E-01
O    1.6327530355048137E-01    3.1931531885464426E-01    5.9094421398978925E-01
O    9.0729416428094001E-01    7.1836871468244357E-01    6.7669755961429170E-02
O    3.0667091792748502E-01    6.7680043802252912E-02    7.1837080245054497E-01
O    5.9270552508459684E-01    4.3233049412486957E-01    7.8163194502066446E-01
O    1.9332966571275473E-01    7.8162858153746484E-01    4.3231970110632306E-01
O    9.2705829570942533E-02    2.8163129084970895E-01    9.3233025630931343E-01
O    6.9332908036060081E-01    9.3231996189021793E-01    2.8162919647246248E-01
O    4.0729448006717595E-01    5.6766949509860931E-01    2.1836805299948597E-01
O    8.0667034178902619E-01    2.1837141540990848E-01    5.6768029107910933E-01
Zn    3.4835770517658754E-01    6.7694832314890752E-01    7.1866336101094400E-02
Zn    9.0284042666915942E-01    7.1860971289441369E-02    6.7695047389499552E-01
Zn    1.5164217425935345E-01    4.2813350587375198E-01    8.2305203845655306E-01
Zn    5.9715965297067242E-01    8.2304919128871368E-01    4.2813917455475470E-01
Zn    6.5164230307999205E-01    3.2305167218445185E-01    9.2813366134516062E-01
Zn    9.7159579894216530E-02    9.2813902101985357E-01    3.2304951651448954E-01
Zn    8.4835781425362033E-01    5.7186649989892913E-01    1.7694797207208735E-01
Zn    4.0284034801009505E-01    1.7695081159373732E-01    5.7186082904143487E-01
Zn    2.4999983279228549E-01    7.4999559517791159E-01    7.5000439911539041E-01
Zn    7.5000017303640754E-01    2.5000440233548649E-01    2.4999560139682281E-01
       SCALED  T
     &END COORD
     &KIND C
       BASIS_SET DZVP-GTH-PBE
       POTENTIAL GTH-PBE-q4
     &END KIND
     &KIND H
       BASIS_SET DZVP-GTH-PBE
       POTENTIAL GTH-PBE-q1
     &END KIND
     &KIND N
       BASIS_SET DZVP-GTH-PBE
       POTENTIAL GTH-PBE-q5
     &END KIND
     &KIND Zn
       BASIS_SET DZVP-MOLOPT-SR-GTH
       POTENTIAL GTH-PBE-q12
     &END KIND
     &KIND O
       BASIS_SET DZVP-GTH-PBE
       POTENTIAL GTH-PBE-q6
     &END KIND
     &TOPOLOGY
       NUMBER_OF_ATOMS  210
       MULTIPLE_UNIT_CELL  1 1 1
     &END TOPOLOGY
   &END SUBSYS
 &END FORCE_EVAL
 &VIBRATIONAL_ANALYSIS
   DX  1.0000000000000001E-3
   FULLY_PERIODIC
   NPROC_REP 128
 &END VIBRATIONAL_ANALYSIS
