 # Version information for this restart file 
 # current date 2017-10-11 23:53:20.306
 # current working dir /gpfs5r/workgpfs/rech/drd/rdrd007/johannes/series/ZIF-8_Br/opt-2500-atomonly
 # Program compiled at                             Tue Oct  7 14:39:23 CEST 2014
 # Program compiled on                                                    ada337
 # Program compiled for                                 Linux-x86-64-gfortran.FL
 # Source code revision number                                         svn:13632
 &GLOBAL
   PRINT_LEVEL  MEDIUM
   PROJECT_NAME ZIF8_Br
   RUN_TYPE VIBRATIONAL_ANALYSIS
 &END GLOBAL
 &FORCE_EVAL
   METHOD  QS
   STRESS_TENSOR  DIAGONAL_ANALYTICAL
   &DFT
     BASIS_SET_FILE_NAME ../../data/BASIS_SET
     BASIS_SET_FILE_NAME ../../data/BASIS_MOLOPT
     POTENTIAL_FILE_NAME ../../data/POTENTIAL
     &SCF
       MAX_SCF  15000
       EPS_SCF     1.0000000000000000E-10
       SCF_GUESS  RESTART
       &OT  T
         MINIMIZER  DIIS
         PRECONDITIONER  FULL_SINGLE_INVERSE
       &END OT
       &MIXING  T
         METHOD  PULAY_MIXING
         ALPHA     5.0000000000000000E-01
         NBUFFER  5
       &END MIXING
       &PRINT
         &RESTART  LOW
         &END RESTART
       &END PRINT
     &END SCF
     &QS
       EPS_DEFAULT     1.0000000000000000E-10
     &END QS
     &MGRID
       NGRIDS  4
       CUTOFF     2.5000000000000000E+03
       REL_CUTOFF     1.0000000000000000E+02
     &END MGRID
     &XC
       DENSITY_CUTOFF     1.0000000000000000E-10
       GRADIENT_CUTOFF     1.0000000000000000E-10
       TAU_CUTOFF     1.0000000000000000E-10
       &XC_FUNCTIONAL  NO_SHORTCUT
         &PBE  T
         &END PBE
       &END XC_FUNCTIONAL
       &VDW_POTENTIAL
         POTENTIAL_TYPE  PAIR_POTENTIAL
         &PAIR_POTENTIAL
           R_CUTOFF     1.6000000000000000E+01
           TYPE  DFTD3
           PARAMETER_FILE_NAME ../../data/dftd3.dat
           REFERENCE_FUNCTIONAL PBE
         &END PAIR_POTENTIAL
       &END VDW_POTENTIAL
     &END XC
   &END DFT
   &SUBSYS
     &CELL
       A     1.4939333000000001E+01    0.0000000000000000E+00    0.0000000000000000E+00
       B    -4.9797776666666680E+00    1.4084938227605292E+01    0.0000000000000000E+00
       C    -4.9797776666666680E+00   -7.0424691138026478E+00    1.2197914315840748E+01
       MULTIPLE_UNIT_CELL  1 1 1
     &END CELL
     &COORD
Br    5.1945735283844408E-01    8.3259936314347383E-01    5.2153758638834291E-01
Br    6.8898406595523776E-01    6.8993165195913164E-01    1.7277544851664581E-01
Br    4.8289301578992361E-01    2.1226920465999555E-03    3.1544858360739614E-01
Br    3.1336578260223275E-01    4.8383673097045676E-01    3.2573513196895235E-03
Br    3.1338171630030709E-01    2.1132619181745693E-03    4.8496398265887458E-01
Br    4.8288510143683033E-01    3.1432733050784845E-01    3.2511961063900951E-03
Br    6.8896083388716600E-01    1.7162005285993515E-01    6.9103517258781988E-01
Br    5.1946040821448602E-01    5.2040448062861300E-01    8.3374695668324106E-01
Br    1.0011688172581281E+00    4.8382718624447951E-01    3.1545058388092884E-01
Br    8.3165543379636042E-01    5.2040909685981163E-01    5.2153465104334495E-01
Br    1.0011771753090346E+00    3.1432301639737065E-01    4.8496661045580597E-01
Br    1.7068200585310372E-01    6.8991191828958498E-01    6.9105074212112816E-01
C    3.8627986914924695E-01    7.5626095098333501E-01    3.8835957138970323E-01
C    6.3213850052382992E-01    6.3308616932766015E-01    2.4910701409758443E-01
C    6.1607074461837830E-01    2.1230358782603487E-03    3.7228970048738258E-01
C    3.7020974635015336E-01    6.1701288922995712E-01    3.2555012862778439E-03
C    3.7020985098536802E-01    2.1146069319694094E-03    6.1814370675270269E-01
C    6.1606272577935528E-01    3.7115625878886960E-01    3.2491247979606879E-03
C    6.3213365999506310E-01    2.4797302483401140E-01    6.3421002720922459E-01
C    3.8628235379005005E-01    3.8722571701251035E-01    7.5740031007542374E-01
C    1.0011723355571589E+00    6.1700716773345221E-01    3.7228727189251998E-01
C    7.5531762187348006E-01    3.8723045205684470E-01    3.8835798561288298E-01
C    1.0011741985363780E+00    3.7115788527161486E-01    6.1814317238850891E-01
C    2.4702588644412965E-01    6.3307777636558016E-01    6.3421613799659060E-01
C    2.6947781234574419E-01    6.7570874646738555E-01    2.1458213593892686E-01
C    5.3890834950965238E-01    5.9682955270316240E-01    3.2965331307409690E-01
C    7.3287325169749473E-01    9.4514869669049628E-01    4.0854294274166253E-01
C    4.6343841274384512E-01    7.9078900363117954E-01    6.0227037008447587E-02
C    4.6342278190741559E-01    5.9091882094811699E-02    7.9192334863142111E-01
C    7.3286603959314622E-01    4.0739345815911432E-01    9.4627304698988990E-01
C    5.3892226930775800E-01    3.2854157600048084E-01    5.9797645150093193E-01
C    2.6947817009502595E-01    2.1344695660269947E-01    6.7683635864375202E-01
C    5.8149951827543844E-02    7.9078593680511133E-01    4.6550831936090803E-01
C    6.7476370386856666E-01    2.7042744676174502E-01    2.1458041641129244E-01
C    9.4419699926827372E-01    4.0740347766507479E-01    7.3494443913485741E-01
C    3.2758663426112655E-01    5.3985984271404752E-01    5.9797394656324498E-01
C    3.2758425591784879E-01    5.9683261346049121E-01    5.4099632390662644E-01
C    9.4419957443122082E-01    7.3381241719235002E-01    4.0853163856834573E-01
C    6.7476566103729718E-01    2.1345279153896413E-01    2.7155615783943859E-01
C    5.8147384688671533E-02    4.6437564456969876E-01    7.9192123619375532E-01
C    5.9588367151495913E-01    5.3985448315140960E-01    3.2965242278892776E-01
C    2.1250365258893522E-01    2.7042285022701695E-01    6.7683924431407083E-01
C    4.0644776501213770E-01    9.4514141873890711E-01    7.3494933967402298E-01
C    7.8984147561863338E-01    4.6437104275645241E-01    6.0223433160314144E-02
C    5.9589798502993818E-01    3.2854370379422931E-01    5.4100168563316187E-01
C    4.0646127204450611E-01    7.3381173713811787E-01    9.4627658968241535E-01
C    2.1250200292652049E-01    6.7570453518228268E-01    2.7155680752588657E-01
C    7.8984823952979422E-01    5.9099215003000832E-02    4.6551573236771471E-01
H    2.4028166775785714E-01    6.4330595855605877E-01    1.2675613835643088E-01
H    4.8348381657885542E-01    6.0003443447921934E-01    3.6205473120020887E-01
H    7.6206984600641936E-01    8.8651927801344721E-01    4.0533756948514948E-01
H    5.1886272010944479E-01    8.7861518208544964E-01    1.1885558785637930E-01
H    5.1883994927914501E-01    1.1772257267419373E-01    8.7974998532736415E-01
H    7.6206240951615156E-01    4.0417962824130638E-01    8.8764263702449842E-01
H    4.8350573235355487E-01    3.6095172895668337E-01    6.0119075960450297E-01
H    2.4028119274782894E-01    1.2562016889973052E-01    6.4442716670495903E-01
H    1.1678099480769680E-01    8.7861197705358451E-01    5.2092945442208305E-01
H    6.4235901251497141E-01    2.4123114349050950E-01    1.2675418125040150E-01
H    8.8556600780284389E-01    4.0419481944893793E-01    7.6413936260278958E-01
H    3.5999443380551133E-01    4.8444109832936888E-01    6.0118546438138254E-01
H    3.5998986712909536E-01    6.0004173619444945E-01    4.8557558554620195E-01
H    8.8557051521214569E-01    7.6301018693395273E-01    4.0532091771688611E-01
H    6.4236256562470018E-01    1.2562681912453164E-01    2.4236045836225042E-01
H    1.1677661650900101E-01    5.1979387558908441E-01    8.7974804141764207E-01
H    5.9908907768322051E-01    4.8442906977446565E-01    3.6205252087357487E-01
H    1.2467727754433283E-01    2.4122684884865797E-01    6.4443265352921186E-01
H    4.0323518663583313E-01    8.8651238435320812E-01    7.6414741044835521E-01
H    8.7766812970130492E-01    5.1978965604262406E-01    1.1885318590748735E-01
H    5.9911193850674527E-01    3.6095630650635674E-01    4.8558690991842146E-01
H    4.0325381026216556E-01    7.6300561752795582E-01    8.8764494544307893E-01
H    1.2467549458915593E-01    6.4329768679182320E-01    2.4236014350557550E-01
H    8.7767431138633734E-01    1.1772951044576019E-01    5.2093795412492605E-01
N    3.8066821824852604E-01    7.2710136607946174E-01    2.8972120186090583E-01
N    5.6266017822489256E-01    6.5663361119412467E-01    2.7826763960341350E-01
N    6.2168304963258403E-01    9.0909667229665181E-01    3.4874216914141526E-01
N    4.3968868968459762E-01    7.1565236422106626E-01    9.6280550579362217E-02
N    4.3968172119773175E-01    9.5141898730998820E-02    7.1678239275632427E-01
N    6.2167527753106389E-01    3.4760030789593754E-01    9.1022249690298995E-01
N    5.6266180893480866E-01    2.7713970795082626E-01    6.5776569428311715E-01
N    3.8066893223831794E-01    2.8858619664642166E-01    7.2823207673142543E-01
N    9.4199483500131548E-02    7.1564522097047156E-01    4.4176321201950014E-01
N    7.2615347894463877E-01    3.8161744142894904E-01    2.8971900224501818E-01
N    9.0814719856420834E-01    3.4760847275978651E-01    6.2375415096900066E-01
N    2.7619278572433881E-01    5.6360560355555478E-01    6.5777043555267467E-01
N    2.7618880049673139E-01    6.5662788320615384E-01    5.6474012924588657E-01
N    9.0814698105528291E-01    6.2262170771053826E-01    3.4873430754501317E-01
N    7.2615673969431582E-01    2.8859207808909576E-01    3.8274618087304951E-01
N    9.4199740773186158E-02    4.4062954872257254E-01    7.1678307152873744E-01
N    6.5568688445902168E-01    5.6360770655291681E-01    2.7826641278482933E-01
N    2.8764374877553650E-01    3.8161363083294597E-01    7.2823666804800535E-01
N    3.4665548125016377E-01    9.0908872288684450E-01    6.2375783033981391E-01
N    7.1470196653616513E-01    4.4063033537612550E-01    9.6275050092669956E-02
N    6.5568921860998608E-01    2.7714322441707778E-01    5.6473990094767212E-01
N    3.4665908749456087E-01    6.2262271130018543E-01    9.1022789821793804E-01
N    2.8764067625594958E-01    7.2709459145072164E-01    3.8274691430507934E-01
N    7.1470926836348481E-01    9.5149959854722355E-02    4.4176478884533887E-01
Zn    5.0117545525564844E-01    7.5212345079153797E-01    2.5325494366691109E-01
Zn    5.0117183154655331E-01    2.5211504136561758E-01    7.5324859913709197E-01
Zn    2.5117285714932047E-01    7.5211444482655621E-01    5.0325280666145733E-01
Zn    7.5117278831277956E-01    5.0212050198340419E-01    2.5324854327932356E-01
Zn    7.5117389774605914E-01    2.5212272620804632E-01    5.0325024576152877E-01
Zn    2.5117385460119723E-01    5.0211710187398850E-01    7.5325541267055596E-01
       SCALED  T
     &END COORD
     &KIND C
       BASIS_SET DZVP-GTH-PBE
       POTENTIAL GTH-PBE-q4
     &END KIND
     &KIND H
       BASIS_SET DZVP-GTH-PBE
       POTENTIAL GTH-PBE-q1
     &END KIND
     &KIND N
       BASIS_SET DZVP-GTH-PBE
       POTENTIAL GTH-PBE-q5
     &END KIND
     &KIND Zn
       BASIS_SET DZVP-MOLOPT-SR-GTH
       POTENTIAL GTH-PBE-q12
     &END KIND
     &KIND Br
       BASIS_SET DZVP-MOLOPT-SR-GTH
       POTENTIAL GTH-PBE-q7
     &END KIND
     &TOPOLOGY
       NUMBER_OF_ATOMS  102
       MULTIPLE_UNIT_CELL  1 1 1
     &END TOPOLOGY
   &END SUBSYS
 &END FORCE_EVAL
 &VIBRATIONAL_ANALYSIS
   DX  1.0000000000000001E-3
   FULLY_PERIODIC
   NPROC_REP 128
 &END VIBRATIONAL_ANALYSIS
