 # Version information for this restart file 
 # current date 2017-10-12 00:43:53.277
 # current working dir /gpfs5r/workgpfs/rech/drd/rdrd007/johannes/series/ZIF-8_CH3/opt-2500-atomonly
 # Program compiled at                             Tue Oct  7 14:39:23 CEST 2014
 # Program compiled on                                                    ada337
 # Program compiled for                                 Linux-x86-64-gfortran.FL
 # Source code revision number                                         svn:13632
 &GLOBAL
   PRINT_LEVEL  MEDIUM
   PROJECT_NAME ZIF8_CH3
   RUN_TYPE VIBRATIONAL_ANALYSIS
 &END GLOBAL
 &FORCE_EVAL
   METHOD  QS
   STRESS_TENSOR  DIAGONAL_ANALYTICAL
   &DFT
     BASIS_SET_FILE_NAME ../../data/BASIS_SET
     BASIS_SET_FILE_NAME ../../data/BASIS_MOLOPT
     POTENTIAL_FILE_NAME ../../data/POTENTIAL
     &SCF
       MAX_SCF  15000
       EPS_SCF     1.0000000000000000E-10
       SCF_GUESS  RESTART
       &OT  T
         MINIMIZER  DIIS
         PRECONDITIONER  FULL_SINGLE_INVERSE
       &END OT
       &MIXING  T
         METHOD  PULAY_MIXING
         ALPHA     5.0000000000000000E-01
         NBUFFER  5
       &END MIXING
       &PRINT
         &RESTART  LOW
         &END RESTART
       &END PRINT
     &END SCF
     &QS
       EPS_DEFAULT     1.0000000000000000E-10
     &END QS
     &MGRID
       NGRIDS  4
       CUTOFF     2.5000000000000000E+03
       REL_CUTOFF     1.0000000000000000E+02
     &END MGRID
     &XC
       DENSITY_CUTOFF     1.0000000000000000E-10
       GRADIENT_CUTOFF     1.0000000000000000E-10
       TAU_CUTOFF     1.0000000000000000E-10
       &XC_FUNCTIONAL  NO_SHORTCUT
         &PBE  T
         &END PBE
       &END XC_FUNCTIONAL
       &VDW_POTENTIAL
         POTENTIAL_TYPE  PAIR_POTENTIAL
         &PAIR_POTENTIAL
           R_CUTOFF     1.6000000000000000E+01
           TYPE  DFTD3
           PARAMETER_FILE_NAME ../../data/dftd3.dat
           REFERENCE_FUNCTIONAL PBE
         &END PAIR_POTENTIAL
       &END VDW_POTENTIAL
     &END XC
   &END DFT
   &SUBSYS
     &CELL
       A     1.4747666000000002E+01    0.0000000000000000E+00    0.0000000000000000E+00
       B    -4.9158886666666683E+00    1.3904232847032384E+01    0.0000000000000000E+00
       C    -4.9158886666666683E+00   -6.9521164235161939E+00    1.2041418865664074E+01
       MULTIPLE_UNIT_CELL  1 1 1
     &END CELL
     &COORD
C    5.1999047540253007E-01    3.1087748785266822E-01    5.7398197989485578E-01
C    2.6219374483825053E-01    2.0085516246398064E-01    6.7880898557611757E-01
C    4.7399006360328672E-01    5.0967176703445194E-02    7.8787067023964075E-01
C    7.3177038056782950E-01    4.1358961130144489E-01    9.3564393067539975E-01
C    7.3389083104368291E-01    9.4454639085394132E-01    4.2155248440570509E-01
C    4.7494876491139876E-01    7.9464917389115464E-01    5.9868404013837001E-02
C    2.6009614765583039E-01    6.8463722312712827E-01    2.0764195884564618E-01
C    5.1904741773266638E-01    5.8191204255736906E-01    3.1670777320940208E-01
C    9.4376919975340734E-01    4.2153489558878582E-01    7.3466179914600982E-01
C    3.1593102007511331E-01    5.1979923326241895E-01    5.8192098484141530E-01
C    5.0214208564066026E-02    7.8787195625385320E-01    4.7475733175073181E-01
C    6.7805756135792516E-01    2.6297069394374639E-01    2.0086595547723388E-01
C    6.8388407851601973E-01    2.0764491090907641E-01    2.6086387140480244E-01
C    5.9092720500884377E-02    4.7570192732601224E-01    7.9465881073328004E-01
C    3.1010080521576605E-01    5.7396241463660624E-01    5.2076073537171730E-01
C    9.3489071052523753E-01    7.3254668857000727E-01    4.1360127657313511E-01
C    2.0686732392257759E-01    2.6085228381402314E-01    6.8463889517610033E-01
C    5.7321479386875940E-01    5.2075594284129423E-01    3.1087688169767175E-01
C    7.9388531499259207E-01    5.9869791064426719E-02    4.7571582057855744E-01
C    4.2077679167781429E-01    7.3465083900448558E-01    9.4454468827886406E-01
C    2.0009806422371917E-01    6.7880602236755472E-01    2.6296732933187145E-01
C    7.8710024000024292E-01    4.7475083265596479E-01    5.0967287193281988E-02
C    5.8114697033385165E-01    3.1670799691174556E-01    5.1981500864190333E-01
C    4.1283867301671306E-01    9.3564339806353591E-01    7.3254434569678883E-01
C    6.2774514664843850E-01    2.4226512417680671E-01    6.2158032456671064E-01
C    3.8323358690064285E-01    3.7706292611151843E-01    7.5324808833689605E-01
C    3.6622648965049176E-01   -9.1900757865766014E-03    6.1150556884821206E-01
C    6.1073860949787651E-01    3.6698407743440603E-01   -9.1803326447715689E-03
C    6.1767910713022034E-01    4.6956010382238622E-03    3.7393016483246871E-01
C    3.7317033638794778E-01    6.1844418136623114E-01    4.7031443512611055E-03
C    3.7630308556523817E-01    7.5323018970283362E-01    3.8400512991328040E-01
C    6.2082805461660540E-01    6.2852584820001456E-01    2.4228343064270816E-01
C    3.9245305753068394E-03    3.7393250064732081E-01    6.1845111937536301E-01
C    2.4150739745880895E-01    6.2158268308006814E-01    6.2852869997252114E-01
C   -9.9425691529459737E-03    6.1150810852814552E-01    3.6698924176193282E-01
C    7.5248050035403113E-01    3.8400902856859737E-01    3.7707059754961869E-01
C    6.7865294315025060E-01    1.8495670808806994E-01    6.7020418307391827E-01
C    4.9144905815988221E-01    4.8299555003749428E-01    8.1055502879296193E-01
C    3.1531300331532902E-01   -1.1473153719241125E-02    5.0329072624565141E-01
C    5.0252724223211853E-01    3.1607008533357039E-01   -1.1457377496906481E-02
C    5.1174605254993466E-01    6.9744071933287022E-03    3.2529157297864447E-01
C    3.2453962914353901E-01    5.1251333745175065E-01    6.9876370380411975E-03
C    4.8223420351621565E-01    8.1052811945731684E-01    4.9221970497467571E-01
C    6.6946197622009707E-01    6.7944330957128929E-01    1.8498638657510180E-01
C    6.2073538542656292E-03    3.2530611017386352E-01    5.1251858264420969E-01
C    1.8421052295748669E-01    6.7021999448743963E-01    6.7944322238377486E-01
C   -1.2226272169397090E-02    5.0329333917547470E-01    3.1607305562643734E-01
C    8.0977906754669382E-01    4.9222389319537058E-01    4.8300151085523263E-01
H    7.7481492454667733E-01    5.4587598119472580E-01    4.7093823902973053E-01
H   -7.5017548776328546E-02    2.5084881027511985E-01    4.4580048074795053E-01
H    2.1916299953092094E-01    6.9310703112556893E-01    7.6805536927686702E-01
H   -7.7950231224652278E-02    4.4963643727116720E-01    2.2746032948275643E-01
H    2.5008972361206977E-01    4.4579233945413943E-01   -7.4241437816765191E-02
H    4.7016756142911265E-01    7.7557108161701405E-01    5.4587586942512678E-01
H    6.9235823932620499E-01    7.6805824278538104E-01    2.1994809157542339E-01
H    4.4502673626028055E-01   -7.4258469674188060E-02    2.5084584612423039E-01
H    4.4886856034065653E-01    2.2745711446526234E-01   -7.7180429963756250E-02
H    7.6726787368116811E-01    2.1991384666750186E-01    6.9310099980553708E-01
H    4.7694235481793251E-01    5.4971388028574464E-01    8.0281634758422404E-01
H    2.2669986265725883E-01   -7.7195831948632665E-02    4.4963251619506645E-01
H    8.9978881178450110E-01    5.3938119359166548E-01    5.1192071216059909E-01
H    1.0244220751260500E+00    3.8639206266554266E-01    4.8359081282172273E-01
H    9.4196693423933053E-02    6.0913803942182287E-01    6.3658007847609810E-01
H    6.9001350932633265E-02    5.1780185731937545E-01    3.2284766271873533E-01
H    7.1937468652299663E-02    3.0242619764349254E-01    5.2458425403794484E-01
H    1.9195054448070592E-01    7.4467487842940838E-01    6.7266998025825464E-01
H    9.6954916213838727E-01    4.5614182420099014E-01    3.5893395519040544E-01
H    8.0205654767234169E-01    4.7771466230838500E-01    5.4972412101682055E-01
H    3.0164669495070928E-01    5.2457860224776021E-01    7.2708623750299212E-02
H    5.4895355336574925E-01    8.0279546431515447E-01    4.7771082500779821E-01
H    6.0837459470874877E-01    6.3658838212743940E-01    9.4975386050554680E-02
H    4.8282243477467524E-01    1.0252105704549956E+00    3.8637854369617392E-01
H    4.5537538081974266E-01    3.5893146419490035E-01    9.7032094102168742E-01
H    6.7186867391326088E-01    1.9267891878446156E-01    7.4465035787516765E-01
H    5.4511378544401035E-01    4.7093039238885642E-01    7.7560965854288944E-01
H    3.2209013732409408E-01    6.9755396891897720E-02    5.1779955113306531E-01
H    3.5817465658239600E-01    9.7030092571778470E-01    4.5614044053099978E-01
H    5.1116043468495675E-01    9.0054023353476698E-01    5.3937213259341488E-01
H    7.4391055182905319E-01    6.7266168747935129E-01    1.9271433943663122E-01
H    5.2380906049959219E-01    7.2689030165168186E-02    3.0238963569810984E-01
H    3.8562801945380087E-01    4.8359049111322183E-01    1.0252174689791225E+00
H    6.3579303951586263E-01    9.4946995695011693E-02    6.0911020711139807E-01
H    5.3859118869112654E-01    5.1192270818168362E-01    9.0056863226786832E-01
H    5.1704079060871055E-01    3.2284612749437286E-01    6.9771762545111957E-02
H    4.5691570022045142E-01    3.3521520752073891E-01    5.7106055257360488E-01
H    2.3146863537407367E-01    1.1190895472529727E-01    6.4815915531595458E-01
H    5.3706737218494272E-01    1.1112120116512875E-01    8.7528223920618919E-01
H    7.6249094392888439E-01    4.1366537265505443E-01    8.7741958910458107E-01
H    7.6115092575530929E-01    8.8439577334521169E-01    4.2448461243569285E-01
H    5.3325086688190659E-01    8.8359448551921171E-01    1.1808843832143294E-01
H    2.3283897336558768E-01    6.6030820263802936E-01    1.2023145628568638E-01
H    4.6074553272922514E-01    5.8183076219555740E-01    3.4735113282034141E-01
H    8.8361615726540577E-01    4.2445794650572477E-01    7.6192092837766134E-01
H    3.4657393874082748E-01    4.6149754606599325E-01    5.8184375282398770E-01
H    1.1036781177809193E-01    8.7528271833622817E-01    5.3783769740936960E-01
H    6.4741641774235004E-01    2.3224637975785217E-01    1.1192103489144488E-01
H    6.5955274936094310E-01    1.2023400271876808E-01    2.3360690700597644E-01
H    1.1731398399745174E-01    5.3399866065536150E-01    8.8360492375430399E-01
H    3.3443113191874208E-01    5.7103121435838045E-01    4.5767967905684459E-01
H    8.7667004356526468E-01    7.6327140872697785E-01    4.1368166197133360E-01
H    1.1945507141743208E-01    2.3359323303878332E-01    6.6030238446471434E-01
H    5.7028698966667091E-01    4.5767455973047050E-01    3.3520595698578071E-01
H    8.8282985344012777E-01    1.1809350036341917E-01    5.3401856151001581E-01
H    4.2370009409066423E-01    7.6190770003881125E-01    8.8439020563910453E-01
H    1.1115287941999591E-01    6.4816281944920673E-01    2.3224295074634405E-01
H    8.7451163688767830E-01    5.3783180686762477E-01    1.1111715372535994E-01
H    5.8107264941799286E-01    3.4735946618323738E-01    4.6151996838043646E-01
H    4.1292076360906826E-01    8.7742277274582769E-01    7.6326883110160892E-01
N    5.5018011177332593E-01    2.6412535547339783E-01    6.3835928421615706E-01
N    3.7334711420999583E-01    2.7470883447924499E-01    7.2183369994600832E-01
N    4.4379133808319382E-01    8.5154281272184273E-02    7.1093030734344997E-01
N    6.2062004227864787E-01    3.4545469813140295E-01    8.9834923477925155E-01
N    6.2276271629640489E-01    9.1035431435421432E-01    3.5716229361621754E-01
N    4.4411640992739965E-01    7.2079811273771677E-01    9.7169946562304862E-02
N    3.7122344363194898E-01    7.3137712561188817E-01    2.8458164680008435E-01
N    5.4988403436360234E-01    6.5004901547229299E-01    2.7369322954830716E-01
N    9.0958094055807925E-01    3.5715500912246329E-01    6.2353275797157248E-01
N    2.7291663697292445E-01    5.5064024257271216E-01    6.5005671599355197E-01
N    8.4401443141988552E-02    7.1093172704675434E-01    4.4455859816799725E-01
N    7.2107376036389903E-01    3.7412266429062774E-01    2.7471705128828711E-01
N    7.3062333925112510E-01    2.8458493804981277E-01    3.7199094563003082E-01
N    9.6392193587436614E-02    4.4487233040039137E-01    7.2080508892933393E-01
N    2.6336087748684900E-01    6.3835122832053237E-01    5.5095642781065335E-01
N    8.9759030194109601E-01    6.2139488773609375E-01    3.4546549339295929E-01
N    2.8380830758058173E-01    3.7198135686270684E-01    7.3138853046363617E-01
N    6.3760198652518174E-01    5.5095581064812871E-01    2.6413687969776889E-01
N    7.2003114110346467E-01    9.7165470302133211E-02    4.4487345101765580E-01
N    3.5639116334227933E-01    6.2352357835492556E-01    9.1035836771570944E-01
N    2.7394939347057834E-01    7.2182019347881976E-01    3.7411871473397773E-01
N    7.1016431960013182E-01    4.4455650131133756E-01    8.5160368474897039E-02
N    6.4927413261954392E-01    2.7368128453976331E-01    5.5064197587122132E-01
N    3.4470559392066014E-01    8.9834262126403885E-01    6.2139176718240774E-01
Zn    4.9698166365396240E-01    2.4121003440777583E-01    7.4121687602210573E-01
Zn    4.9699813430579742E-01    7.5429558972088184E-01    2.5430236612173923E-01
Zn    7.5352537370955364E-01    2.5429777987443297E-01    4.9775981700562305E-01
Zn    2.5352516076699561E-01    4.9775398926168080E-01    7.5430294827542554E-01
Zn    2.4045500324495397E-01    7.4121016660929384E-01    4.9775642659920821E-01
Zn    7.4045798633726645E-01    4.9775745751097211E-01    2.4121911321089362E-01
       SCALED  T
     &END COORD
     &KIND C
       BASIS_SET DZVP-GTH-PBE
       POTENTIAL GTH-PBE-q4
     &END KIND
     &KIND H
       BASIS_SET DZVP-GTH-PBE
       POTENTIAL GTH-PBE-q1
     &END KIND
     &KIND N
       BASIS_SET DZVP-GTH-PBE
       POTENTIAL GTH-PBE-q5
     &END KIND
     &KIND Zn
       BASIS_SET DZVP-MOLOPT-SR-GTH
       POTENTIAL GTH-PBE-q12
     &END KIND
     &TOPOLOGY
       NUMBER_OF_ATOMS  138
       MULTIPLE_UNIT_CELL  1 1 1
     &END TOPOLOGY
   &END SUBSYS
 &END FORCE_EVAL
 &VIBRATIONAL_ANALYSIS
   DX  1.0000000000000001E-3
   FULLY_PERIODIC
   NPROC_REP 128
 &END VIBRATIONAL_ANALYSIS
