 # Version information for this restart file 
 # current date 2017-10-11 18:17:58.031
 # current working dir /gpfs5r/workgpfs/rech/drd/rdrd007/johannes/series/ZIF-8_Cl/opt-2500-atomonly
 # Program compiled at                             Tue Oct  7 14:39:23 CEST 2014
 # Program compiled on                                                    ada337
 # Program compiled for                                 Linux-x86-64-gfortran.FL
 # Source code revision number                                         svn:13632
 &GLOBAL
   PRINT_LEVEL  MEDIUM
   PROJECT_NAME ZIF8_Cl
   RUN_TYPE VIBRATIONAL_ANALYSIS
 &END GLOBAL
 &FORCE_EVAL
   METHOD  QS
   STRESS_TENSOR  DIAGONAL_ANALYTICAL
   &DFT
     BASIS_SET_FILE_NAME ../../data/BASIS_SET
     BASIS_SET_FILE_NAME ../../data/BASIS_MOLOPT
     POTENTIAL_FILE_NAME ../../data/POTENTIAL
     &SCF
       MAX_SCF  15000
       EPS_SCF     1.0000000000000000E-10
       SCF_GUESS  RESTART
       &OT  T
         MINIMIZER  DIIS
         PRECONDITIONER  FULL_SINGLE_INVERSE
       &END OT
       &MIXING  T
         METHOD  PULAY_MIXING
         ALPHA     5.0000000000000000E-01
         NBUFFER  5
       &END MIXING
       &PRINT
         &RESTART  LOW
         &END RESTART
       &END PRINT
     &END SCF
     &QS
       EPS_DEFAULT     1.0000000000000000E-10
     &END QS
     &MGRID
       NGRIDS  4
       CUTOFF     2.5000000000000000E+03
       REL_CUTOFF     1.0000000000000000E+02
     &END MGRID
     &XC
       DENSITY_CUTOFF     1.0000000000000000E-10
       GRADIENT_CUTOFF     1.0000000000000000E-10
       TAU_CUTOFF     1.0000000000000000E-10
       &XC_FUNCTIONAL  NO_SHORTCUT
         &PBE  T
         &END PBE
       &END XC_FUNCTIONAL
       &VDW_POTENTIAL
         POTENTIAL_TYPE  PAIR_POTENTIAL
         &PAIR_POTENTIAL
           R_CUTOFF     1.6000000000000000E+01
           TYPE  DFTD3
           PARAMETER_FILE_NAME ../../data/dftd3.dat
           REFERENCE_FUNCTIONAL PBE
         &END PAIR_POTENTIAL
       &END VDW_POTENTIAL
     &END XC
   &END DFT
   &SUBSYS
     &CELL
       A     1.4897000000000002E+01    0.0000000000000000E+00    0.0000000000000000E+00
       B    -4.9656666666666682E+00    1.4045026292447998E+01    0.0000000000000000E+00
       C    -4.9656666666666682E+00   -7.0225131462240009E+00    1.2163349566080333E+01
       MULTIPLE_UNIT_CELL  1 1 1
     &END CELL
     &COORD
C    7.9075837212197320E-01    5.4909335891295874E-02    4.5798964096257544E-01
C    4.0308546561485370E-01    7.3138872412230826E-01    9.4064224000815022E-01
C    2.0924744670229425E-01    6.6722506834135209E-01    2.6416608710947809E-01
C    5.9694960005812947E-01    5.3758165212367004E-01    3.2834704207020365E-01
C    5.9693660620473665E-01    3.2831581980996799E-01    5.3756881580479188E-01
C    2.0925479483420228E-01    2.6416166674191482E-01    6.6724439060811125E-01
C    4.0307648489008086E-01    9.4063834315114492E-01    7.3139645243955087E-01
C    7.9076103057426372E-01    4.5798206606751302E-01    5.4927183261657284E-02
C    3.3054645852129105E-01    5.3756421837426849E-01    5.9470457042707037E-01
C    5.7142061222350854E-02    7.8853152563630036E-01    4.5798078815971743E-01
C    6.6945451773030096E-01    2.6415984685149296E-01    2.0702706529046114E-01
C    9.4286809033428853E-01    4.0085216948494151E-01    7.3139342303586852E-01
C    9.4286286658318108E-01    7.3139090115498939E-01    4.0084181464531560E-01
C    6.6945603525982267E-01    2.0701911253807648E-01    2.6416551259571391E-01
C    5.7147261429136398E-02    4.5799340934275246E-01    7.8853286966874803E-01
C    3.3054526178567406E-01    5.9470454726953004E-01    5.3756568948590278E-01
C    7.3362364360697130E-01    4.0084374604790302E-01    9.4064799593398207E-01
C    4.6022258225299612E-01    7.8852712081422627E-01    5.4921444808985191E-02
C    2.6638641934669116E-01    6.6722354189016575E-01    2.0702586452561272E-01
C    5.3980858799669895E-01    5.9471982837323623E-01    3.2834533444921471E-01
C    7.3361692983061677E-01    9.4063012463844620E-01    4.0084916853040542E-01
C    2.6639547185900214E-01    2.0702312914617968E-01    6.6724595707146206E-01
C    4.6021877116268683E-01    5.4917530719925833E-02    7.8853625118665094E-01
C    5.3979867529068193E-01    3.2831878739401149E-01    5.9471005729023241E-01
C    6.1599358963926154E-01   -2.2271585403202399E-03    3.6898422810436643E-01
C    3.7120695109077473E-01    6.1376200857589325E-01    9.9777945539054980E-01
C    3.8401377879850646E-01    7.5299270484793090E-01    3.8179197167193046E-01
C    6.2879569227831811E-01    6.2656710620490330E-01    2.4256514060736656E-01
C    6.2880744539369404E-01    2.4256282193451370E-01    6.2658111320225207E-01
C    3.8401891592024318E-01    3.8178781383267629E-01    7.5299280291911963E-01
C    3.7121078904887372E-01   -2.2212822410848654E-03    6.1377118852072132E-01
C    6.1599419474203854E-01    3.6898093339745242E-01   -2.2162096758759856E-03
C    2.4479332210205657E-01    6.2657524058580005E-01    6.2657924818561717E-01
C    4.0210800943962788E-06    6.1376500887484398E-01    3.6898962913221095E-01
C    7.5522152640450169E-01    3.8178453353141539E-01    3.8179369462885010E-01
C    7.6736354041040400E-06    3.6897578564100214E-01    6.1376850438137176E-01
Cl    4.9385866079254637E-01   -2.2248282005320197E-03    3.1959116461032938E-01
Cl    3.2180531223345987E-01    4.9162554579822759E-01    9.9777774965514510E-01
Cl    5.0615072305590569E-01    8.2574184232539083E-01    5.0392839824107871E-01
Cl    6.7817523984953965E-01    6.7594644051017183E-01    1.6980728333205028E-01
Cl    6.7820447729932365E-01    1.6982471054249793E-01    6.7597953626545038E-01
Cl    5.0615373390512663E-01    5.0392396582413923E-01    8.2572584467402044E-01
Cl    3.2181680126745016E-01    9.9777931460911962E-01    4.9163534770904638E-01
Cl    4.9385633180372512E-01    3.1959038135982243E-01    9.9778112587436341E-01
Cl    1.7205658682572222E-01    6.7597304263483349E-01    6.7597947041831652E-01
Cl    1.0000050726913419E+00    4.9162854228481478E-01    3.1960671824269093E-01
Cl    8.2796935900602175E-01    5.0392025787849304E-01    5.0393112547277619E-01
Cl    7.6167698468132539E-06    3.1957360460174855E-01    4.9163300198991033E-01
H    8.7904602528985065E-01    1.1365903925267640E-01    5.1179725410107579E-01
H    3.9814823526340071E-01    7.6092575300820131E-01    8.8189218743920061E-01
H    1.2095990929695126E-01    6.3274255983176830E-01    2.3462991841624259E-01
H    6.0190219845507409E-01    4.8378343776178218E-01    3.6283712044189914E-01
H    6.0187712341975141E-01    3.6279131243896889E-01    4.8375749198211665E-01
H    1.2096768313708575E-01    2.3462489130963471E-01    6.3276918739107069E-01
H    3.9813200182639041E-01    8.8188705321566019E-01    7.6093252207370143E-01
H    8.7904824711034124E-01    5.1178746399759611E-01    1.1367984059463175E-01
H    3.6502381290985031E-01    4.8375413725440486E-01    5.9964411778617510E-01
H    1.1589237698860647E-01    8.7681966147471302E-01    5.1178173094082458E-01
H    6.3497121103822807E-01    2.3462430829239717E-01    1.1873959129636801E-01
H    8.8411701483638883E-01    3.9591292614514600E-01    7.6092928196501042E-01
H    8.8411113385084950E-01    7.6092685468409638E-01    3.9589270200667803E-01
H    6.3497407954022345E-01    1.1873136465784974E-01    2.3462778541367191E-01
H    1.1589830159832859E-01    5.1180678740630459E-01    8.7681965600623013E-01
H    3.6502093172898464E-01    5.9964586753914928E-01    4.8375461799898523E-01
H    7.6316232698884867E-01    3.9589906294395710E-01    8.8189867061383442E-01
H    5.1403393622082239E-01    8.7681390600729836E-01    1.1367345915233058E-01
H    2.3684917995812549E-01    6.3273903236343410E-01    1.1873802240428993E-01
H    4.8600877703957784E-01    5.9967101639848286E-01    3.6283363012318220E-01
H    7.6315155906961452E-01    8.8187776110975791E-01    3.9590533286034468E-01
H    2.3686050970728151E-01    1.1873646466851268E-01    6.3277255369440810E-01
H    5.1402843463320147E-01    1.1366827175059724E-01    8.7682347931405213E-01
H    4.8599037844288062E-01    3.6279795044609592E-01    5.9965193669077210E-01
N    7.1510124055111435E-01    9.1038934926264803E-02    4.3712394121944531E-01
N    3.4608500703050993E-01    6.1960262619533957E-01    9.0451309626478393E-01
N    2.8490719036814299E-01    7.2202354729878770E-01    3.7595281997910629E-01
N    6.5393145173212508E-01    5.5843578814279349E-01    2.7354133948257575E-01
N    6.5393252906873922E-01    2.7352591747090516E-01    5.5843838333613394E-01
N    2.8491201421117390E-01    3.7594752397616460E-01    7.2202842352407703E-01
N    3.4608106127549854E-01    9.0451125326978699E-01    6.1961034801032966E-01
N    7.1509997358043909E-01    4.3711784195763981E-01    9.1052236959982463E-02
N    2.7575909901562567E-01    5.5843355043439213E-01    6.5170362867198550E-01
N    9.3270666995635410E-02    7.1287274831828285E-01    4.3712344960911709E-01
N    7.2425061335056040E-01    3.7594615398791165E-01    2.8268736170094660E-01
N    9.0674052658295690E-01    3.4385043069390753E-01    6.1960782691795546E-01
N    9.0673634320193830E-01    6.1960393502881406E-01    3.4385734717641747E-01
N    7.2425309583133257E-01    2.8267711863478939E-01    3.7595261454842888E-01
N    9.3274861164616307E-02    4.3712043324683103E-01    7.1287474639723303E-01
N    2.7575721802863334E-01    6.5170197527612017E-01    5.5843766070643930E-01
N    6.2183635679437377E-01    3.4385279959092158E-01    9.0451791079932187E-01
N    4.3934814348951778E-01    7.1286783059841585E-01    9.1047475815153184E-02
N    3.7817333324423785E-01    7.2202098113403101E-01    2.8268464548174471E-01
N    5.6066193166710732E-01    6.5170058546050980E-01    2.7353851474477736E-01
N    6.2183108941146270E-01    9.0450460195671178E-01    3.4385549050425551E-01
N    3.7818092724191221E-01    2.8268204698856281E-01    7.2203089938006682E-01
N    4.3935260919709124E-01    9.1045602766419320E-02    7.1287789346929786E-01
N    5.6066810757456365E-01    2.7353077829805039E-01    6.5170832502836740E-01
Zn    7.5000751651220698E-01    2.4777203110321996E-01    4.9778056867820436E-01
Zn    2.5000765492790455E-01    4.9777590810987143E-01    7.4777936494834230E-01
Zn    2.5000384973989564E-01    7.4777856574221424E-01    4.9778207831885363E-01
Zn    7.5000344728688362E-01    4.9777530109896762E-01    2.4778464266970532E-01
Zn    5.0001041605348717E-01    2.4777902591010056E-01    7.4778384826211430E-01
Zn    5.0000129569392660E-01    7.4777220723531779E-01    2.4778006493939209E-01
       SCALED  T
     &END COORD
     &KIND C
       BASIS_SET DZVP-GTH-PBE
       POTENTIAL GTH-PBE-q4
     &END KIND
     &KIND H
       BASIS_SET DZVP-GTH-PBE
       POTENTIAL GTH-PBE-q1
     &END KIND
     &KIND N
       BASIS_SET DZVP-GTH-PBE
       POTENTIAL GTH-PBE-q5
     &END KIND
     &KIND Zn
       BASIS_SET DZVP-MOLOPT-SR-GTH
       POTENTIAL GTH-PBE-q12
     &END KIND
     &KIND Cl
       BASIS_SET DZVP-MOLOPT-SR-GTH
       POTENTIAL GTH-PBE-q7
     &END KIND
     &TOPOLOGY
       NUMBER_OF_ATOMS  102
       MULTIPLE_UNIT_CELL  1 1 1
     &END TOPOLOGY
   &END SUBSYS
 &END FORCE_EVAL
 &VIBRATIONAL_ANALYSIS
   DX  1.0000000000000001E-3
   FULLY_PERIODIC
   NPROC_REP 128
 &END VIBRATIONAL_ANALYSIS
