 # Version information for this restart file 
 # current date 2017-10-08 02:56:07.721
 # current working dir /gpfs5r/workgpfs/rech/drd/rdrd007/johannes/series/ZIF-8/opt-2500-atomonly
 # Program compiled at                             Tue Oct  7 14:39:23 CEST 2014
 # Program compiled on                                                    ada337
 # Program compiled for                                 Linux-x86-64-gfortran.FL
 # Source code revision number                                         svn:13632
 &GLOBAL
   PRINT_LEVEL  MEDIUM
   PROJECT_NAME ZIF8
   RUN_TYPE VIBRATIONAL_ANALYSIS
 &END GLOBAL
 &FORCE_EVAL
   METHOD  QS
   STRESS_TENSOR  DIAGONAL_ANALYTICAL
   &DFT
     BASIS_SET_FILE_NAME ../../data/BASIS_SET
     BASIS_SET_FILE_NAME ../../data/BASIS_MOLOPT
     POTENTIAL_FILE_NAME ../../data/POTENTIAL
     &SCF
       MAX_SCF  15000
       EPS_SCF     1.0000000000000000E-10
       SCF_GUESS  RESTART
       &OT  T
         MINIMIZER  DIIS
         PRECONDITIONER  FULL_SINGLE_INVERSE
       &END OT
       &MIXING  T
         METHOD  PULAY_MIXING
         ALPHA     5.0000000000000000E-01
         NBUFFER  5
       &END MIXING
       &PRINT
         &RESTART  LOW
         &END RESTART
       &END PRINT
     &END SCF
     &QS
       EPS_DEFAULT     1.0000000000000000E-10
     &END QS
     &MGRID
       NGRIDS  4
       CUTOFF     2.5000000000000000E+03
       REL_CUTOFF     1.0000000000000000E+02
     &END MGRID
     &XC
       DENSITY_CUTOFF     1.0000000000000000E-10
       GRADIENT_CUTOFF     1.0000000000000000E-10
       TAU_CUTOFF     1.0000000000000000E-10
       &XC_FUNCTIONAL  NO_SHORTCUT
         &PBE  T
         &END PBE
       &END XC_FUNCTIONAL
       &VDW_POTENTIAL
         POTENTIAL_TYPE  PAIR_POTENTIAL
         &PAIR_POTENTIAL
           R_CUTOFF     1.6000000000000000E+01
           TYPE  DFTD3
           PARAMETER_FILE_NAME ../../data/dftd3.dat
           REFERENCE_FUNCTIONAL PBE
         &END PAIR_POTENTIAL
       &END VDW_POTENTIAL
     &END XC
   &END DFT
   &SUBSYS
     &CELL
       A     1.4697333000000000E+01    0.0000000000000000E+00    0.0000000000000000E+00
       B    -4.8991110000000013E+00    1.3856778439542435E+01    0.0000000000000000E+00
       C    -4.8991110000000013E+00   -6.9283892197712191E+00    1.2000322143256238E+01
       MULTIPLE_UNIT_CELL  1 1 1
     &END CELL
     &COORD
Zn   -5.0236578530836551E-01    2.5082109139230857E-01   -2.5306484061739637E-01
Zn    4.9755908185731518E-01   -2.4988893724213901E-01    2.4757441940308159E-01
Zn   -2.5245124212765357E-01   -4.9920525620178080E-01    2.4687184281264493E-01
Zn    2.4691266840850018E-01   -2.5061055451455422E-01   -5.0378337043447374E-01
Zn    2.4687372007138847E-01   -5.0057884229910854E-01   -2.5381307025557709E-01
Zn   -2.5242995294555970E-01    2.5011852783133254E-01   -5.0241702757503559E-01
C   -2.6103683811733919E-01    3.3812500285519154E-01   -2.0338927253078568E-01
C   -4.8025913728936814E-01   -5.7933090579024668E-02    2.0156692687281777E-01
C    2.6179244452391598E-01    5.8162701714289722E-02   -4.2845960079504364E-01
C    4.5854063440886195E-01   -3.3811124376189883E-01    4.0009122971951327E-01
C   -2.0335590774063625E-01   -2.5854979930696287E-01    3.3430186903559422E-01
C    3.1598823996076997E-01   -2.0436672692418378E-01   -2.6561731521427634E-01
C    4.0176959678564361E-01    4.6263900961793891E-01   -3.4016258767551860E-01
C   -6.0786067188958959E-02    2.0047680672719484E-01   -4.6549406518579323E-01
C    2.0352803084282661E-01   -4.8304109249261745E-01   -6.1170026865965822E-02
C    5.5322751037715556E-02   -4.0392039173325889E-01    2.5559598066744255E-01
C   -4.2148757033947032E-01    2.6263386832569757E-01    5.4954640601084591E-02
C   -3.1329981474812363E-01    4.2521038005260298E-01    4.8004545660131281E-01
C    3.1598731924440282E-01   -2.6242182954541693E-01   -2.0757609776073427E-01
C   -6.0771750406137331E-02   -4.6236487187448405E-01    1.9730254550169632E-01
C    5.5308321858451914E-02    2.5876382960516786E-01   -4.0704118549849611E-01
C   -3.1329276782757259E-01    4.8328595599421509E-01    4.2200833982220165E-01
C   -2.6115834807833971E-01   -2.0025789063647070E-01    3.3413595733720680E-01
C   -2.0323358497649682E-01    3.3827764142859773E-01   -2.6168027581609216E-01
C    4.5941646569774697E-01    4.0419128245050595E-01   -3.4031753094304268E-01
C   -4.7953586453182101E-01    2.0457668256978723E-01   -6.1141691204078585E-02
C    2.0373630285288682E-01   -5.7949575760673194E-02   -4.8651613927217285E-01
C   -4.2220868284266694E-01    5.8163910289328519E-02    2.5961509375735120E-01
C    2.6159381793647574E-01   -4.2495876680313310E-01    5.4942617836334952E-02
C    4.0088596827396838E-01   -3.3796646671144881E-01    4.5853075332901250E-01
C   -3.8196151674127732E-01    2.3645932193835209E-01   -3.8189953122190817E-01
C   -3.8517557995492507E-01    1.1563459030286549E-04    3.7915586594706974E-01
C    3.7959245670125680E-01    1.0644855324484781E-04   -3.8133125979150728E-01
C    3.8169722029995634E-01   -2.3622649665496986E-01    3.8176292756138713E-01
C   -3.8209444160685890E-01   -3.7877469280742504E-01    2.3322464428437911E-01
C    2.3244313714628076E-01   -3.8206847370809255E-01   -3.8528410227915666E-01
C    3.8144728793899280E-01    3.8473703089729044E-01   -2.3954416185541644E-01
C   -3.1969495735958142E-03    3.7899535688072400E-01   -3.8788618524712115E-01
C    3.7944194496312522E-01   -3.7814408848994430E-01   -3.1366546759621604E-03
C   -3.1931832806030291E-03   -3.8453580295186729E-01    3.7582230766279195E-01
C   -3.8538934826071086E-01    3.8227908243396891E-01   -3.1089403279212983E-03
C   -2.4230573376376791E-01    3.7836484888213406E-01    3.7511893629490856E-01
N   -3.7437392152785920E-01    2.7323144280067735E-01   -2.8037062379472355E-01
N   -4.5625263679139250E-01   -9.4013539150190562E-02    2.7812657693206555E-01
N    3.7330977387520553E-01    9.4215171663406205E-02   -3.6191788626442678E-01
N    4.4592591969120521E-01   -2.7325265257678677E-01    3.5172572784868344E-01
N   -2.8083422756852550E-01   -3.7178060441050687E-01    2.6997292470184259E-01
N    2.6277227316863516E-01   -2.8099331940915911E-01   -3.7833326032283465E-01
N    3.5264693780443401E-01    4.4987575310486738E-01   -2.7593807928525343E-01
N   -9.7140498803197139E-02    2.7746607813401980E-01   -4.5292388120636440E-01
N    2.7902493679136758E-01   -4.5275136964308099E-01   -9.7235810770966880E-02
N    9.1073298656074803E-02   -3.5487623010427621E-01    3.6882802426828665E-01
N   -3.6199891132101897E-01    3.7534681054788416E-01    9.1025711268013690E-02
N   -2.6812289872768158E-01    3.5883723727288397E-01    4.4970811502597491E-01
N    2.6276988615859798E-01   -3.7513433598264834E-01   -2.8421619533386827E-01
N   -9.7131872751161696E-02   -4.4964643956690498E-01    2.7428929895504378E-01
N    9.1066233124184104E-02    3.7199583461094088E-01   -3.5813780030872511E-01
N   -2.6811076720616694E-01    4.5297637656798601E-01    3.5563189790887995E-01
N   -3.7450316945274398E-01   -2.7724296092154771E-01    2.6971641331508212E-01
N   -2.8070439815158826E-01    2.7346642337739246E-01   -3.7490601421297026E-01
N    4.4607704401876763E-01    3.5510062880209842E-01   -2.7617562803906726E-01
N   -4.5612790090458638E-01    2.8120238178008006E-01   -9.7232452763153121E-02
N    2.7920114665103557E-01   -9.4002133561097434E-02   -4.5602711274407687E-01
N   -3.6212046171689188E-01    9.4244745284017342E-02    3.7225517479374304E-01
N    3.7314757786546393E-01   -3.5860098122198075E-01    9.0979398268333275E-02
N    3.5248479448656300E-01   -2.7303043311387326E-01    4.4648953073761072E-01
H   -2.3033331629542148E-01    3.7822189163678011E-01   -1.1349673861278023E-01
H    4.6275452090516017E-01   -1.1738643044820422E-01    1.1225262379979944E-01
H    2.3288506590531455E-01    1.1772892851441052E-01   -4.3012408967679605E-01
H   -4.9219077056721039E-01   -3.7864227612335444E-01    3.8975603238615159E-01
H   -1.1355522744113719E-01   -2.2835672086684169E-01    3.7450289198331960E-01
H    3.4874893810045748E-01   -1.1499642793881613E-01   -2.3568807647239312E-01
H    3.9282781737139283E-01   -4.8710968280648687E-01   -3.7980042042155515E-01
H   -1.1997715105242582E-01    1.1058646667729521E-01    4.8438569676867049E-01
H    1.1502742796385834E-01    4.5582693997497647E-01   -1.2072450456698504E-01
H    1.1493653345987002E-01   -3.9401110952416740E-01    2.2541021726999871E-01
H   -4.1863437900361267E-01    2.3271849219833607E-01    1.1440810933606381E-01
H   -3.4067409818508138E-01    4.2675670087386020E-01   -4.5883121636997692E-01
H    3.4875712937571357E-01   -2.3250554965036593E-01   -1.1820697815399220E-01
H   -1.1996406489743625E-01    4.8741635805759403E-01    1.0741293728674052E-01
H    1.1491206953811592E-01    2.2856595208065431E-01   -3.9703809371846405E-01
H   -3.4065165194015312E-01   -4.5557411133406411E-01    4.2359448291578028E-01
H   -2.3045477276995463E-01   -1.1036673334294311E-01    3.7390647599074567E-01
H   -1.1343314566077124E-01    3.7878304561942522E-01   -2.3148126168826330E-01
H   -4.9085199078913383E-01    3.9430952702819361E-01   -3.8038568997426636E-01
H    4.6386021378683140E-01    1.1520540246785951E-01   -1.2058181974715111E-01
H    1.1526275607441260E-01   -1.1751585376011028E-01    4.5225293746318784E-01
H   -4.1973999158448105E-01    1.1761676349895943E-01    2.2975324913501596E-01
H    2.3266890259649675E-01   -4.2649089405084756E-01    1.1451903600767098E-01
H    3.9146162022965736E-01   -3.7809819342380935E-01   -4.9170768050534874E-01
H   -4.6143993676514722E-01   -4.5787606677210851E-01    1.7869767524151861E-01
H    3.5646964321098462E-01    3.6000496298247914E-01   -1.8517205996772923E-01
H    4.5748976928314794E-01   -3.3923284129860060E-01   -3.1484018639852448E-03
H   -3.5215766290680312E-01    4.6117906086887595E-01   -3.1164975604032262E-03
H    1.8677876156044304E-01   -4.6096890032007970E-01   -4.6419045580265617E-01
H   -4.6129590658285213E-01    1.8155820742487558E-01   -4.6099138745457136E-01
H   -3.4396476146709709E-03   -3.5984050312265048E-01    4.5492524159789738E-01
H    3.5729955558350235E-01   -1.8128907851060352E-01    3.5761138838040935E-01
H   -2.0318707379836357E-01    3.3943918074035018E-01    3.3618045257596513E-01
H   -3.5145295397665999E-01    1.1569831136698516E-04    4.5800789259396646E-01
H   -3.4364666283718259E-03    4.5809904910920313E-01   -3.6330882739738385E-01
H    4.5761557875783704E-01    1.0633307526716762E-04   -3.4226076837633085E-01
       SCALED  T
     &END COORD
     &KIND C
       BASIS_SET DZVP-GTH-PBE
       POTENTIAL GTH-PBE-q4
     &END KIND
     &KIND H
       BASIS_SET DZVP-GTH-PBE
       POTENTIAL GTH-PBE-q1
     &END KIND
     &KIND N
       BASIS_SET DZVP-GTH-PBE
       POTENTIAL GTH-PBE-q5
     &END KIND
     &KIND Zn
       BASIS_SET DZVP-MOLOPT-SR-GTH
       POTENTIAL GTH-PBE-q12
     &END KIND
     &TOPOLOGY
       NUMBER_OF_ATOMS  102
       MULTIPLE_UNIT_CELL  1 1 1
     &END TOPOLOGY
   &END SUBSYS
 &END FORCE_EVAL
 &VIBRATIONAL_ANALYSIS
   DX  1.0000000000000000E-3
   FULLY_PERIODIC
   NPROC_REP 128
 &END VIBRATIONAL_ANALYSIS
