 # Version information for this restart file 
 # current date 2017-10-13 16:23:14.593
 # current working dir /gpfs5r/workgpfs/rech/drd/rdrd007/johannes/series/ZIF-90/opt-2500-atomonly-restart
 # Program compiled at                             Tue Oct  7 14:39:23 CEST 2014
 # Program compiled on                                                    ada337
 # Program compiled for                                 Linux-x86-64-gfortran.FL
 # Source code revision number                                         svn:13632
 &GLOBAL
   PRINT_LEVEL  MEDIUM
   PROJECT_NAME ZIF90
   RUN_TYPE VIBRATIONAL_ANALYSIS
 &END GLOBAL
 &FORCE_EVAL
   METHOD  QS
   STRESS_TENSOR  DIAGONAL_ANALYTICAL
   &DFT
     BASIS_SET_FILE_NAME ../../data/BASIS_SET
     BASIS_SET_FILE_NAME ../../data/BASIS_MOLOPT
     POTENTIAL_FILE_NAME ../../data/POTENTIAL
     &SCF
       MAX_SCF  15000
       EPS_SCF     1.0000000000000000E-10
       SCF_GUESS  RESTART
       &OT  T
         MINIMIZER  DIIS
         PRECONDITIONER  FULL_SINGLE_INVERSE
       &END OT
       &MIXING  T
         METHOD  PULAY_MIXING
         ALPHA     5.0000000000000000E-01
         NBUFFER  5
       &END MIXING
       &PRINT
         &RESTART  LOW
         &END RESTART
       &END PRINT
     &END SCF
     &QS
       EPS_DEFAULT     1.0000000000000000E-10
     &END QS
     &MGRID
       NGRIDS  4
       CUTOFF     2.5000000000000000E+03
       REL_CUTOFF     1.0000000000000000E+02
     &END MGRID
     &XC
       DENSITY_CUTOFF     1.0000000000000000E-10
       GRADIENT_CUTOFF     1.0000000000000000E-10
       TAU_CUTOFF     1.0000000000000000E-10
       &XC_FUNCTIONAL  NO_SHORTCUT
         &PBE  T
         &END PBE
       &END XC_FUNCTIONAL
       &VDW_POTENTIAL
         POTENTIAL_TYPE  PAIR_POTENTIAL
         &PAIR_POTENTIAL
           R_CUTOFF     1.6000000000000000E+01
           TYPE  DFTD3
           PARAMETER_FILE_NAME ../../data/dftd3.dat
           REFERENCE_FUNCTIONAL PBE
         &END PAIR_POTENTIAL
       &END VDW_POTENTIAL
     &END XC
   &END DFT
   &SUBSYS
     &CELL
       A     1.7265994237262166E+01    0.0000000000000000E+00    0.0000000000000000E+00
       B     0.0000000000000000E+00    1.7265994237262166E+01    0.0000000000000000E+00
       C     0.0000000000000000E+00    0.0000000000000000E+00    1.7265994237262166E+01
       MULTIPLE_UNIT_CELL  1 1 1
       SYMMETRY  CUBIC
     &END CELL
     &COORD
Zn    2.5011098117062658E-01    4.9999206838878768E-01    2.0127479222807913E-05
Zn    8.9615983860535212E-05    2.4999285363717866E-01    5.0001861411666115E-01
Zn    5.0008994099975135E-01   -5.0064313424073996E-06    2.5001978349468607E-01
Zn    8.9417883401851956E-05    7.4999257358905547E-01    5.0002190509461153E-01
Zn    5.0008909172399774E-01   -9.5516208802434624E-06    7.5001996226936574E-01
Zn    7.5011060553930498E-01    4.9999311441425931E-01    2.0510733501109266E-05
Zn    2.5008846922029088E-01   -7.0485344019349610E-06    5.0002002037279936E-01
Zn    5.0011205083749199E-01    2.4999269852932654E-01    1.9795298566944550E-05
Zn    1.1182567961467031E-04    4.9999258155163373E-01    2.5001992750320412E-01
Zn    5.0011232915911807E-01    7.4999300018217385E-01    2.0154314686600556E-05
Zn    1.1200344423027245E-04    4.9999309018752225E-01    7.5002016562992513E-01
Zn    7.5008849496489172E-01   -7.7539036401951692E-06    5.0002029122510927E-01
H    7.2069902679703468E-01    1.4921237188668549E-01    6.0545769099887958E-01
H    6.0555544675542494E-01    7.2060968397492042E-01    1.4924193530457633E-01
H    1.4932897559202865E-01    6.0544326945236837E-01    7.2063110793492624E-01
H    7.2070188325385076E-01    8.5077338512474865E-01    3.9458001072594662E-01
H    6.0555454069935788E-01    2.7937741757750156E-01    8.5079996495461752E-01
H    1.4932828490143751E-01    3.9453975075631537E-01    2.7940666864086988E-01
H    2.7947323066648572E-01    1.4921375301764159E-01    3.9457782383924017E-01
H    3.9467754718551179E-01    7.2060049563123840E-01    8.5079910904079614E-01
H    8.5088883759825884E-01    6.0542757157119353E-01    2.7940031834368906E-01
H    2.7947460985479516E-01    8.5076946729399072E-01    6.0546028153183229E-01
H    3.9467513968775175E-01    2.7938226755137979E-01    1.4924205374887561E-01
H    8.5088950256397999E-01    3.9456021477694952E-01    7.2063862428461678E-01
H    6.4933114931814051E-01    2.2060266392159023E-01    1.0546878220067875E-01
H    2.2070155188717372E-01    1.0543266014346929E-01    6.4924005695117526E-01
H    1.0555826376212725E-01    6.4921051147346864E-01    2.2063930367784121E-01
H    3.5088767089799833E-01    2.2060972272190918E-01    8.9458793549531401E-01
H    7.7947374213853104E-01    1.0543453160516067E-01    3.5079992391086667E-01
H    8.9467681991600378E-01    6.4921464694986142E-01    7.7941197500211346E-01
H    6.4933026754985423E-01    7.7938276295516773E-01    8.9457056746624042E-01
H    2.2069950895760543E-01    8.9455489676551558E-01    3.5080101989158818E-01
H    1.0555497002354947E-01    3.5077219118678504E-01    7.7940355326978650E-01
H    3.5088723831409968E-01    7.7937799846473899E-01    1.0545025715214033E-01
H    7.7947227138655484E-01    8.9454874344250013E-01    6.4924195736045054E-01
H    8.9467169647567013E-01    3.5077310105250187E-01    2.2063362728800562E-01
H    3.9434783477353541E-01    8.4975360339151529E-01    7.2104063884832881E-01
H    7.2112941969888023E-01    3.9425595833057081E-01    8.4978231044379049E-01
H    8.4985962171220597E-01    7.2100016331887695E-01    3.9428119213214163E-01
H    3.9434805387550731E-01    1.5023070220083776E-01    2.7899920406444351E-01
H    7.2113119768744582E-01    6.0573186467383855E-01    1.5025916116519206E-01
H    8.4985948342970918E-01    2.7898716640936511E-01    6.0575828791117348E-01
H    6.0582199344515342E-01    8.4975330965350804E-01    2.7900636590698330E-01
H    2.7909594160077572E-01    3.9425673896529623E-01    1.5026020283052538E-01
H    1.5033537595401653E-01    7.2102288856506458E-01    6.0575702607281390E-01
H    6.0581921348133116E-01    1.5023205142110979E-01    7.2103141296503748E-01
H    2.7909931373549091E-01    6.0572516300636259E-01    8.4978055150815324E-01
H    1.5033400338492883E-01    2.7895940225014532E-01    3.9428000563779086E-01
H    3.4985832048713200E-01    8.9425809204239981E-01    2.2102354711813044E-01
H    8.9434732331326106E-01    2.2101446517690795E-01    3.4978417232858583E-01
H    2.2113116943950059E-01    3.4975472758391463E-01    8.9428086426825892E-01
H    6.5033631204621634E-01    8.9425628571105698E-01    7.7899039147530003E-01
H    1.0582167307432515E-01    2.2100631185370981E-01    6.5025995629945710E-01
H    7.7909376914102657E-01    3.4975396864290492E-01    1.0575812246992336E-01
H    3.4985792630844359E-01    1.0572917439114754E-01    7.7901523333987732E-01
H    8.9434655514979311E-01    7.7896942968529748E-01    6.5025765642527467E-01
H    2.2113279004300251E-01    6.5022838129532223E-01    1.0576050462716328E-01
H    6.5033651600425135E-01    1.0573014055914076E-01    2.2104999161473832E-01
H    1.0582069376497832E-01    7.7898015708403856E-01    3.4978161197615748E-01
H    7.7909850659144375E-01    6.5023323319445814E-01    8.9428737307368478E-01
H    4.4766627259780278E-01    1.1307723958698024E-01    6.3880856165109612E-01
H    6.3889141832903484E-01    4.4758235388463719E-01    1.1310001327709134E-01
H    1.1318186353407581E-01    6.3877988113111850E-01    4.4761305513259514E-01
H    4.4766628985190898E-01    8.8690710731324551E-01    3.6122893775936271E-01
H    6.3889166822343368E-01    5.5240537988135596E-01    8.8694116760058150E-01
H    1.1318150763587123E-01    3.6120431663418195E-01    5.5242537961860816E-01
H    5.5249166590639143E-01    1.1306835193746279E-01    3.6123801493196267E-01
H    3.6131999040804963E-01    4.4757820870603432E-01    8.8693912174334655E-01
H    8.8702120191228961E-01    6.3877128498003499E-01    5.5243656777352168E-01
H    5.5249163271788693E-01    8.8691558179164665E-01    6.3880065338107128E-01
H    3.6131932327381361E-01    5.5240754021895011E-01    1.1310352464727919E-01
H    8.8702182426428267E-01    3.6121589628659484E-01    4.4760406215555509E-01
H    6.1318249744958020E-01    9.4758583930008844E-01    1.3880861284788748E-01
H    9.4766640534349389E-01    1.3878276747102772E-01    6.1310690526835798E-01
H    1.3889344634442036E-01    6.1307326147013896E-01    9.4760698774773455E-01
H    3.8702134396895227E-01    9.4757431676194348E-01    8.6123861143174418E-01
H    5.2490831663518832E-02    1.3877304677945246E-01    3.8694512428945887E-01
H    8.6132235880195440E-01    6.1307215964672557E-01    5.2430563522666791E-02
H    6.1318245856092024E-01    5.2401162518973733E-02    8.6122915080236295E-01
H    9.4766873266569174E-01    8.6120619289069866E-01    3.8693659201586467E-01
H    1.3888902035955128E-01    3.8691395487663155E-01    5.2427701914640912E-02
H    3.8702166039008012E-01    5.2411270632239729E-02    1.3879893293484158E-01
H    5.2491601279670994E-02    8.6121120234157100E-01    6.1309727140715575E-01
H    8.6131851413419891E-01    3.8690976113192627E-01    9.4760441688897223E-01
C    1.2498121558352127E-01    8.7448537285437333E-01    5.0990617758274426E-01
C    5.0998989818404328E-01    1.2488851969824147E-01    8.7450835760398393E-01
C    8.7459928405248721E-01    5.0987850702987492E-01    1.2491655249872652E-01
C    1.2498140879940062E-01    1.2550035258770187E-01    4.9013585588810604E-01
C    5.0998993085152666E-01    8.7509845353310634E-01    1.2552988577023941E-01
C    8.7459844009158194E-01    4.9010612521803426E-01    8.7512269539429544E-01
C    8.7518737991824302E-01    8.7447774015466184E-01    4.9013504633235810E-01
C    4.9022055759075772E-01    1.2489218993637774E-01    1.2553138019821755E-01
C    1.2562260734796343E-01    5.0987736011938578E-01    8.7512233575737386E-01
C    8.7518679323911486E-01    1.2550798338018410E-01    5.0990782319304639E-01
C    4.9021970332162063E-01    8.7509318156380167E-01    8.7450774681546095E-01
C    1.2562091127525363E-01    4.9010731939168800E-01    1.2491615476394353E-01
C    3.7459923668077710E-01    6.2488987513210648E-01    1.0099077077841212E+00
C    6.2498171557328597E-01    1.0098775633701615E+00    3.7451215336328753E-01
C    1.0099903597723223E+00    3.7448279145695457E-01    6.2491472208975951E-01
C    6.2562230348815184E-01    6.2489073551630070E-01   -9.8631991684527964E-03
C    3.7518714167490219E-01    1.0098774856043580E+00    6.2553470041197157E-01
C   -9.7805493803731908E-03    3.7448094918765917E-01    3.7512084688969383E-01
C    3.7459874291913026E-01    3.7509493649261466E-01   -9.8654881214921275E-03
C    6.2498074465165598E-01   -9.8928160131350144E-03    6.2552698761872438E-01
C    1.0099897333322498E+00    6.2550346772470622E-01    3.7512445720152937E-01
C    6.2562121720331598E-01    3.7509641206660033E-01    1.0099051359625673E+00
C    3.7518669426610568E-01   -9.8938083149649730E-03    3.7450406725153740E-01
C   -9.7806976599806982E-03    6.2550433126918004E-01    6.2491883464830311E-01
C    3.1872207940470076E-01    1.0307604943953128E-01    3.7578365204025260E-01
C    3.7587983799911323E-01    3.1863050819802646E-01    1.0310431501222508E-01
C    1.0318889625332564E-01    3.7574997541432503E-01    3.1865566210155227E-01
C    3.1872299931992248E-01    8.9690741692618847E-01    6.2425483631111234E-01
C    3.7588172232915557E-01    6.8135275678785534E-01    8.9693705229168230E-01
C    1.0318948222942831E-01    6.2423361759224405E-01    6.8138255074736243E-01
C    6.8144836803358211E-01    1.0307562410492797E-01    6.2425020778586970E-01
C    6.2434611038537136E-01    3.1862848104508629E-01    8.9693677968468233E-01
C    8.9702380948054861E-01    3.7576527161285361E-01    6.8138629156073915E-01
C    6.8145061906374294E-01    8.9690983032651883E-01    3.7578798859735912E-01
C    6.2434715457632473E-01    6.8135875017938674E-01    1.0310503995800227E-01
C    8.9702330235673844E-01    6.2422201535173794E-01    3.1865272788937121E-01
C    6.0319044391131960E-01    8.1863069381379994E-01    8.7577966216243097E-01
C    8.1872151733305187E-01    8.7575532891157271E-01    6.0310428311556730E-01
C    8.7588100196896712E-01    6.0307674070688955E-01    8.1865977019362712E-01
C    3.9702224167497452E-01    8.1862918539384000E-01    1.2424593405804257E-01
C    1.8144900036845787E-01    8.7576214894279492E-01    3.9693779615309072E-01
C    1.2434849705044121E-01    6.0307426403022779E-01    1.8138693981933560E-01
C    6.0319125778806770E-01    1.8135482256558363E-01    1.2425973702725393E-01
C    8.1872231240911675E-01    1.2422875381847095E-01    3.9693783542740213E-01
C    8.7587777527495225E-01    3.9691010762233159E-01    1.8138388041301587E-01
C    3.9702250685924895E-01    1.8135828852497704E-01    8.7579234619564050E-01
C    1.8145036037599127E-01    1.2422466605199105E-01    6.0310354909748953E-01
C    1.2434691608908065E-01    3.9690903932218113E-01    8.1865442063442950E-01
C    6.2387914417090962E-01    8.9630482685436275E-01    3.1827776265533297E-01
C    3.1836943066967138E-01    6.2378331614063376E-01    8.9633278257519500E-01
C    8.9641394367637994E-01    3.1825548154960043E-01    6.2381454444380846E-01
C    6.2387693466433947E-01    1.0368039820030034E-01    6.8176044528622126E-01
C    3.1836703061092753E-01    3.7619950398795604E-01    1.0370843361718837E-01
C    8.9641377777129361E-01    6.8173153239075623E-01    3.7622480603779129E-01
C    3.7629121868289744E-01    8.9630476471114973E-01    6.8176854145481125E-01
C    6.8185870633779722E-01    6.2378844243184917E-01    1.0370833841749265E-01
C    1.0378662890835404E-01    3.1823621428789906E-01    3.7622394219751720E-01
C    3.7629110367765489E-01    1.0367927313080764E-01    3.1827082850610466E-01
C    6.8185721785059705E-01    3.7619914514601704E-01    8.9633328135585344E-01
C    1.0378750856687846E-01    6.8174707718760008E-01    6.2381401470562770E-01
C    3.9641271160918323E-01    1.2378629585346633E-01    8.1828278109010288E-01
C    1.2387798155668235E-01    8.1825151866182599E-01    3.9633310247448145E-01
C    8.1836553988388050E-01    3.9630553134340729E-01    1.2381438238971904E-01
C    6.0378875538985088E-01    1.2378704792051211E-01    1.8177401746957461E-01
C    8.7629023922459937E-01    8.1824213938203438E-01    6.0370689719326776E-01
C    1.8185870760997144E-01    3.9630563169257188E-01    8.7622444563286594E-01
C    3.9641290322543327E-01    8.7620085985531326E-01    1.8175582262158727E-01
C    1.2387885551790651E-01    1.8173486289547433E-01    6.0370849534178683E-01
C    8.1836859434929887E-01    6.0368100405788216E-01    8.7622913702748528E-01
C    6.0378832170611985E-01    8.7619895850656460E-01    8.1826590121369480E-01
C    8.7629073643794897E-01    1.8174216722280659E-01    3.9633517095020160E-01
C    1.8185952902150118E-01    6.0367789016147677E-01    1.2381622381170450E-01
C    8.9686025748163511E-01    8.9459589495042646E-01    4.1056106762264982E-01
C    4.1064693095674509E-01    8.9676674728224071E-01    8.9462908955571707E-01
C    8.9471030889026948E-01    4.1053043946553935E-01    8.9679545495356672E-01
C    8.9685840457299681E-01    1.0539204144011544E-01    5.8948281061306329E-01
C    4.1064817255280472E-01    1.0321847774756102E-01    1.0540861377416696E-01
C    8.9471362978698410E-01    5.8945263284310256E-01    1.0324040181376005E-01
C    1.0330219986191921E-01    8.9460228374538209E-01    5.8947896501777752E-01
C    5.8956443430129846E-01    8.9677542016338907E-01    1.0541725086702057E-01
C    1.0549925120657547E-01    4.1053570058004857E-01    1.0323748123321533E-01
C    1.0330197286216065E-01    1.0538281993523084E-01    4.1056345601777289E-01
C    5.8956491100973685E-01    1.0321231552184722E-01    8.9461975106272529E-01
C    1.0550285495809900E-01    5.8945011913586698E-01    8.9679840891865092E-01
C    3.9471198562052523E-01    3.9676933817641508E-01    9.1055968987584446E-01
C    3.9685809621001827E-01    9.1053104501216964E-01    3.9461946565407269E-01
C    9.1064765394300573E-01    3.9460485940445506E-01    3.9679563478070112E-01
C    6.0550134408240719E-01    3.9677299748776024E-01    8.9477777839398143E-02
C    6.0330200997816874E-01    9.1053447088729411E-01    6.0540967421564040E-01
C    8.9564419921128999E-02    3.9459562661010533E-01    6.0323630666907391E-01
C    3.9471085917973842E-01    6.0321697366231475E-01    8.9483455008648627E-02
C    3.9685897462567721E-01    8.9452029110892367E-02    6.0541761492753143E-01
C    9.1064700641667029E-01    6.0538167755029426E-01    6.0324459276083697E-01
C    6.0550182722546120E-01    6.0321442177421536E-01    9.1056433059719377E-01
C    6.0330256518268754E-01    8.9450292453421482E-02    3.9462881265281141E-01
C    8.9563983821330448E-02    6.0539018691346491E-01    3.9680147823725698E-01
N    6.8195405209659277E-01    3.1828641411706438E-02    5.8978096129147972E-01
N    5.8987597835642969E-01    6.8186332723716525E-01    3.1859019028489359E-02
N    3.1945401277762291E-02    5.8975831984879057E-01    6.8188884004299488E-01
N    6.8195555247861517E-01    9.6815653862265261E-01    4.1025787487809123E-01
N    5.8987522464820619E-01    3.1812361043851395E-01    9.6818292751786417E-01
N    3.1945396563909802E-02    4.1022652672614501E-01    3.1815046101490435E-01
N    3.1821621563904368E-01    3.1829133373778441E-02    4.1025309091745255E-01
N    4.1034888197052183E-01    6.8186017065135140E-01    9.6818509663665231E-01
N    9.6827183773924996E-01    5.8975606912925438E-01    3.1814938215800515E-01
N    3.1821729636388718E-01    9.6815418597925773E-01    5.8978516089570976E-01
N    4.1034819783559556E-01    3.1812435578451853E-01    3.1856842138917034E-02
N    9.6827259048910264E-01    4.1023069455627481E-01    6.8188956329862382E-01
N    5.3194710521794619E-01    1.8186132153904580E-01    8.9784549836880834E-02
N    1.8195530268624710E-01    8.9754701714991877E-02    5.3185687086851263E-01
N    8.9875907130711266E-02    5.3182890748462797E-01    1.8189004282421134E-01
N    4.6827182509710019E-01    1.8186286103864174E-01    9.1025673180641298E-01
N    8.1821665804148569E-01    8.9758845426041678E-02    4.6818451481894374E-01
N    9.1034822193353648E-01    5.3182872829041494E-01    8.1815247302036354E-01
N    5.3194605553525887E-01    8.1812378584832945E-01    9.1025440215100106E-01
N    1.8195434258897558E-01    9.1023162675528113E-01    4.6818466913816403E-01
N    8.9875934612250963E-02    4.6815516605512236E-01    8.1814993318151163E-01
N    4.6827145920197172E-01    8.1812448845918495E-01    8.9781420851824792E-02
N    8.1821660878658597E-01    9.1022618585135273E-01    5.3185805829563237E-01
N    9.1034745699093600E-01    4.6815695832286180E-01    1.8188849486039080E-01
N    6.8240876770101699E-01    4.1152556407643015E-01    9.6758113261110434E-01
N    9.6766027812082123E-01    6.8228695772245074E-01    4.1155382971103516E-01
N    4.1161551451954065E-01    9.6755372085576874E-01    6.8232300879700702E-01
N    6.8241026815020589E-01    5.8846197927287847E-01    3.2460499779904561E-02
N    9.6766050829118588E-01    3.1769938944179044E-01    5.8848570381729115E-01
N    4.1161575045620358E-01    3.2430487316662253E-02    3.1771655619736539E-01
N    3.1781206631169795E-01    4.1152393060118675E-01    3.2459694779750289E-02
N    3.2538362014158134E-02    6.8229562340603012E-01    5.8849022152878139E-01
N    5.8855216648852560E-01    9.6755226301382802E-01    3.1772599855108513E-01
N    3.1781356051659054E-01    5.8845981394756031E-01    9.6758199403592604E-01
N    3.2537956268342841E-02    3.1768870957585066E-01    4.1154873736833714E-01
N    5.8855084225505416E-01    3.2432513292130510E-02    6.8231291634067825E-01
N    9.1161534554482870E-01    1.8229613574071304E-01    4.6758395815151033E-01
N    1.8241061055110050E-01    4.6755349186960665E-01    9.1155088319370681E-01
N    4.6766018709743151E-01    9.1152826817502020E-01    1.8231287221325043E-01
N    8.8551884351515134E-02    1.8228657421360486E-01    5.3246105279020661E-01
N    8.1781216807379675E-01    4.6755338474403518E-01    8.8488141471786075E-02
N    5.3253882210123216E-01    9.1152203787371910E-01    8.1771663060702249E-01
N    9.1161560441701195E-01    8.1768912470169630E-01    5.3245847672798041E-01
N    1.8240941346247705E-01    5.3243091565760725E-01    8.8488041239016338E-02
N    4.6765980426396708E-01    8.8458461774286248E-02    8.1772577082333586E-01
N    8.8551748257779894E-02    8.1769908914636869E-01    4.6758091097801913E-01
N    8.1781265918006341E-01    5.3243177891178073E-01    9.1155261833543277E-01
N    5.3253926607683522E-01    8.8463908183975787E-02    1.8232319662326077E-01
O    3.6311551953195614E-01    1.2898685093295317E-01    5.5565401059755770E-01
O    5.5573668473257620E-01    3.6303279701658719E-01    1.2901396796228365E-01
O    1.2910614451987926E-01    5.5563178698785776E-01    3.6305886875592813E-01
O    3.6311348490448520E-01    8.7099430898270203E-01    4.4438072544441848E-01
O    5.5573648147032328E-01    6.3695494656561225E-01    8.7102929529879614E-01
O    1.2910713266279455E-01    4.4435516516728080E-01    6.3697648928497785E-01
O    6.3704124161371034E-01    1.2899101575567481E-01    4.4439065643671866E-01
O    4.4447236176521071E-01    3.6302765754421240E-01    8.7101962179685666E-01
O    8.7111460797199192E-01    5.5561501375927502E-01    6.3698589973825770E-01
O    6.3704039879433516E-01    8.7099470430912418E-01    5.5564681079471834E-01
O    4.4446914148973460E-01    6.3696028672031568E-01    1.2902480968989460E-01
O    8.7111577677047469E-01    4.4437185466424312E-01    3.6305414262801589E-01
O    6.2910646356408828E-01    8.6303453260278418E-01    5.5657618605148160E-02
O    8.6311423017145628E-01    5.5630191922951731E-02    6.2901920547500900E-01
O    5.5737602377886317E-02    6.2898544185096239E-01    8.6305806046872535E-01
O    3.7111392640298962E-01    8.6302548853492767E-01    9.4439528427534070E-01
O    1.3704072899959277E-01    5.5620526734869676E-02    3.7102334783441199E-01
O    9.4447396747234780E-01    6.2899320362568056E-01    1.3698153462957954E-01
O    6.2910799993607236E-01    1.3695485260549201E-01    9.4437740618327759E-01
O    8.6311649050025008E-01    9.4435906351008303E-01    3.7102600231376881E-01
O    5.5733431330492814E-02    3.7099990693827622E-01    1.3697639318053434E-01
O    3.7111654222482382E-01    1.3695941785854179E-01    5.5641058213804211E-02
O    1.3704041243262036E-01    9.4436472171673602E-01    6.2901939415412400E-01
O    9.4446919124664486E-01    3.7098976559400132E-01    8.6305221043974356E-01
       SCALED  T
     &END COORD
     &KIND C
       BASIS_SET DZVP-GTH-PBE
       POTENTIAL GTH-PBE-q4
     &END KIND
     &KIND H
       BASIS_SET DZVP-GTH-PBE
       POTENTIAL GTH-PBE-q1
     &END KIND
     &KIND N
       BASIS_SET DZVP-GTH-PBE
       POTENTIAL GTH-PBE-q5
     &END KIND
     &KIND Zn
       BASIS_SET DZVP-MOLOPT-SR-GTH
       POTENTIAL GTH-PBE-q12
     &END KIND
     &KIND O
       BASIS_SET DZVP-GTH-PBE
       POTENTIAL GTH-PBE-q6
     &END KIND
     &TOPOLOGY
       NUMBER_OF_ATOMS  252
       MULTIPLE_UNIT_CELL  1 1 1
     &END TOPOLOGY
   &END SUBSYS
 &END FORCE_EVAL
 &VIBRATIONAL_ANALYSIS
   DX  1.0000000000000001E-3
   FULLY_PERIODIC
   NPROC_REP 128
 &END VIBRATIONAL_ANALYSIS
