 # Version information for this restart file 
 # current date 2017-10-13 12:57:55.166
 # current working dir /gpfs5r/workgpfs/rech/drd/rdrd007/johannes/series/zni/opt-2500-atomonly-restart
 # Program compiled at                             Tue Oct  7 14:39:23 CEST 2014
 # Program compiled on                                                    ada337
 # Program compiled for                                 Linux-x86-64-gfortran.FL
 # Source code revision number                                         svn:13632
 &GLOBAL
   PRINT_LEVEL  MEDIUM
   PROJECT_NAME zni
   RUN_TYPE VIBRATIONAL_ANALYSIS
 &END GLOBAL
 &FORCE_EVAL
   METHOD  QS
   STRESS_TENSOR  DIAGONAL_ANALYTICAL
   &DFT
     BASIS_SET_FILE_NAME ../../data/BASIS_SET
     BASIS_SET_FILE_NAME ../../data/BASIS_MOLOPT
     POTENTIAL_FILE_NAME ../../data/POTENTIAL
     &SCF
       MAX_SCF  15000
       EPS_SCF     1.0000000000000000E-10
       SCF_GUESS  RESTART
       &OT  T
         MINIMIZER  DIIS
         PRECONDITIONER  FULL_SINGLE_INVERSE
       &END OT
       &MIXING  T
         METHOD  PULAY_MIXING
         ALPHA     5.0000000000000000E-01
         NBUFFER  5
       &END MIXING
       &PRINT
         &RESTART  LOW
         &END RESTART
       &END PRINT
     &END SCF
     &QS
       EPS_DEFAULT     1.0000000000000000E-10
     &END QS
     &MGRID
       NGRIDS  4
       CUTOFF     2.5000000000000000E+03
       REL_CUTOFF     1.0000000000000000E+02
     &END MGRID
     &XC
       DENSITY_CUTOFF     1.0000000000000000E-10
       GRADIENT_CUTOFF     1.0000000000000000E-10
       TAU_CUTOFF     1.0000000000000000E-10
       &XC_FUNCTIONAL  NO_SHORTCUT
         &PBE  T
         &END PBE
       &END XC_FUNCTIONAL
       &VDW_POTENTIAL
         POTENTIAL_TYPE  PAIR_POTENTIAL
         &PAIR_POTENTIAL
           R_CUTOFF     1.6000000000000000E+01
           TYPE  DFTD3
           PARAMETER_FILE_NAME ../../data/dftd3.dat
           REFERENCE_FUNCTIONAL PBE
         &END PAIR_POTENTIAL
       &END VDW_POTENTIAL
     &END XC
   &END DFT
   &SUBSYS
     &CELL
       A     1.7666113080157174E+01    0.0000000000000000E+00    0.0000000000000000E+00
       B    -1.3202195809775246E+01    1.1738550896991216E+01    0.0000000000000000E+00
       C    -2.2320123040842086E+00   -5.8692550393751581E+00    1.6512465525114237E+01
       MULTIPLE_UNIT_CELL  1 1 1
     &END CELL
     &COORD
C    3.8129488367864628E-01    2.3053463624340834E-01    9.7334440118537341E-02
C    1.3689444336683326E-01    2.8395341564310295E-01   -9.3646240126981195E-02
C   -1.7614902364903595E-02    3.8504491975467781E-01    3.5293509655767469E-01
C    3.5803669896161294E-02   -3.7055618418073438E-01   -3.4924730805010240E-01
C   -1.1870552789633328E-01   -2.1604590075558450E-01    1.5075244312868447E-01
C   -3.6310466082889348E-01   -2.6946437719413208E-01   -1.4706607670773972E-01
C    4.8238421983637036E-01    1.2944350265848628E-01   -4.0266584321098897E-01
C   -4.6419748204737177E-01   -1.1495649457308421E-01    4.0635384479192987E-01
C   -4.4380402120658802E-01    3.1415536442281483E-01    1.0386958470887464E-01
C    2.1397864148259585E-01    4.5231841961510239E-01   -1.0018248066269256E-01
C    6.6005698594456930E-02    4.6212988992905779E-01    2.6165458084389759E-01
C    2.0416847358829904E-01   -1.9565528010800157E-01   -2.5796625371515275E-01
C    5.6196153797540810E-02   -4.7681201985303970E-02    2.4203301680847658E-01
C   -2.8601874883195377E-01   -1.8584316465959841E-01   -2.3834618490048853E-01
C   -4.3399624215186183E-01    3.0434413078048100E-01   -3.9613040882413897E-01
C   -2.9583216952739178E-01   -3.7872117270069200E-02    3.9981840984126266E-01
C   -4.2893572618718678E-01    3.7500093343890950E-01    1.7451444506144409E-01
C    2.0417861263259668E-01    3.9654108539422078E-01   -1.7082733290094301E-01
C    1.2685045767338274E-01    4.5232944955402010E-01    3.0763187996528474E-01
C    1.4839078424247212E-01   -1.8078786925552162E-01   -3.0394369759139245E-01
C    7.1062892480735732E-02   -1.0345922213577829E-01    1.9605552880360735E-01
C   -2.9581879957478197E-01   -1.2499821136335680E-01   -1.9236910688810860E-01
C   -3.7315076277110204E-01    3.1921220614178991E-01   -3.2548529750791261E-01
C   -3.5160937721907604E-01   -4.7671981219719634E-02    3.2917326466639196E-01
C    3.8822922587926056E-01    2.3885724891533824E-01    3.5367282705109387E-01
C   -1.1112217932334255E-01    3.4549279022815654E-02   -3.4998526920785700E-01
C   -9.2916526035669855E-03    1.3702872655927817E-01    3.5432264299940724E-01
C   -2.1360151717816880E-01   -3.6362184790921331E-01   -3.5063548807527523E-01
C   -1.1177135848979668E-01   -4.6545085782409351E-01    1.4936490488236109E-01
C    3.8887827004799214E-01   -2.6114260523702154E-01   -1.4567793342284577E-01
C    4.9070701814887913E-01    1.3637804418829730E-01   -1.4632694626001527E-01
C    2.8639984626101617E-01   -3.6297160331253253E-01    1.5001428660300534E-01
C   -2.0449188380238287E-01    3.6442093918810436E-01    6.5967362480584574E-02
C    3.0214813459227718E-01   -2.7046628473069173E-01   -6.2279573549047139E-02
C    1.1626990954183859E-01   -4.4970388637997316E-01    7.2607647550005552E-02
C    4.8138382169962618E-01    4.3656778011619435E-02   -6.8919530040340488E-02
C    2.9550632660087894E-01    2.2953249853126173E-01    4.3107895423826226E-01
C   -1.9785320416014418E-01   -1.3557928967501454E-01   -4.2739252473701772E-01
C   -3.8372981756214231E-01   -4.5634261193192360E-01   -4.3403383025747494E-01
C   -1.8616248771783556E-02    5.0296898378776489E-02    4.3772024946984789E-01
C    3.1501345167051303E-01    2.9417625238627815E-01    3.8136651519871029E-01
C   -8.3497169253843484E-02   -6.6360277436276302E-02   -3.7768018719726437E-01
C    4.6025909657241876E-02    1.6465200150498205E-01    4.8285733650894347E-01
C   -3.1451085428954112E-01   -4.3683661213326591E-01   -4.7917033667171255E-01
C   -1.8498598716346445E-01    4.3363960393413564E-01    2.0830332879005379E-02
C    4.1650427254220468E-01   -2.0582279725743163E-01   -1.7143094694668053E-02
C   -4.5397350978189938E-01    6.3162729757883271E-02   -1.1863232207373942E-01
C    1.8548836416090381E-01   -3.3534839509210906E-01    1.2232013004455863E-01
C   -3.4362881611415613E-01   -3.7021308453536250E-01    2.6593481909249328E-01
C    3.6754491399474409E-01    3.9042891338703190E-01   -2.6224730861583345E-01
C    3.8163513738435018E-01   -3.8430543702166842E-01    4.7711185039084375E-01
C    1.4227727127046785E-01   -9.5481630361714059E-02   -4.7342343601615960E-01
C    1.5636847976127149E-01   -1.0957247317448271E-01    2.6576499056133757E-02
C   -1.3245438182338934E-01    1.2978662766019791E-01   -2.2889596700514100E-02
C   -1.1836420676794064E-01    4.0451941014219756E-01   -2.3406482749742907E-01
C   -3.5772179988682640E-01    1.1569495520248599E-01    2.3775337834067695E-01
C   -4.3017554642832334E-01    1.3200381637216416E-01    1.4085436522066708E-01
C   -5.1568134880215916E-03    4.2896389550872394E-01   -1.3716604299010612E-01
C   -1.1614467926637773E-01    2.4299311158822168E-01    6.5874915247026836E-02
C    1.8081396009377274E-01   -1.8202590919465386E-01   -6.2185534442010491E-02
C    6.9823057757326612E-02   -7.1037906840479864E-02    4.3781275564014249E-01
C    4.9484283440197141E-01   -3.6799588841720732E-01   -4.3412459568000705E-01
C    3.8385277525455874E-01    3.1797521828545150E-01   -3.5914670906750673E-01
C   -3.1918520013470897E-01   -2.5700631548436981E-01    3.6283281917698984E-01
C   -4.2115797968366764E-01   -3.7723950739252021E-01    3.5638302494223217E-01
C    2.7006940017525904E-01    2.2245208178020889E-01   -3.5269691675698200E-01
C    3.7460975408401370E-01   -4.8177940440708000E-01   -4.5238485757286773E-01
C   -2.5700098464780663E-02   -1.7301058282260146E-01    4.5607316548264010E-01
C    7.8840744422457601E-02   -2.7754925928889401E-01   -4.3925644361070736E-02
C   -2.2992821906233646E-01    1.2275994070079824E-01    4.7614275520870317E-02
C   -1.2538997217306119E-01    3.2699131415162230E-01   -1.4361560926070938E-01
C    4.7430118920959252E-01    1.8220332418364509E-02    1.4730397338555815E-01
C   -1.0999471054655402E-01   -4.7011278193018113E-01    3.9525728967085733E-01
C    1.3832245254558320E-01    4.9474096110431870E-01   -3.9156978613038462E-01
C    2.8173901063567136E-01    3.8647430042882047E-01    1.4357546434857929E-01
C    2.4659267843015328E-01    1.3815637830627300E-01   -1.3988738956857075E-01
C    3.9000504174808970E-01   -5.2589446108216031E-03    3.6011198626882174E-01
C   -3.6167639679930774E-01    2.9887877091187509E-02   -3.5642418030159656E-01
C   -2.1826343915966098E-01   -3.6184464455748822E-01   -1.0474321919193391E-01
C   -2.5340701989480757E-01   -1.1352582337258718E-01    1.0842952351633860E-01
C   -2.7947415863892783E-01    4.1239363525183381E-01    4.2144405171569244E-01
C   -5.3575110760431810E-03    2.9907484560376824E-01   -4.1775628810602022E-01
C    1.6424574303963824E-01    2.4279360493284075E-01    1.9556118556973717E-01
C    5.0926441769632125E-02   -3.1322952802345705E-02   -1.9187426312309752E-01
C    2.2052574212462900E-01   -2.0092512280639099E-01    3.0812592273320427E-01
C    4.9464367585227331E-01   -8.7605106312328082E-02   -3.0443791595405445E-01
C   -3.3575632934497918E-01    4.6867547063199189E-01   -7.8557000096383750E-02
C   -4.4907350478385932E-01   -2.5720696647513575E-01    8.2242057129120583E-02
C   -3.0134538711366449E-01    3.4970499999266957E-01    3.4773420005352557E-01
C    5.6639959719007593E-03    3.5091358401722211E-01   -3.4404632399666707E-01
C    1.0155688712365661E-01    2.5381497652637330E-01    1.5474395913087435E-01
C    1.0276486592111628E-01   -5.3194670734724808E-02   -1.5105690069262687E-01
C    1.9865426782344103E-01   -1.4908669663570567E-01    3.4894323709728953E-01
C   -4.9433533186346806E-01   -1.5029401554612160E-01   -3.4525519612513422E-01
C   -3.9844492396618186E-01    4.4680430113246672E-01   -1.5226713342744591E-01
C   -3.9723473271011350E-01   -2.4618538560422726E-01    1.5595231922042802E-01
H    2.8534966428086533E-01    1.7188564071099607E-01    7.4591788053278624E-02
H    1.0098907701619739E-01    2.1075164975821434E-01   -7.0902930327677249E-02
H   -7.6263691034407749E-02    3.4913912722500490E-01    3.9023132864482812E-01
H   -3.7398005902771092E-02   -4.6650105878081183E-01   -3.8654380127365595E-01
H   -2.1465063425015629E-01   -2.8924740771588792E-01    1.1345619712960693E-01
H   -3.9901098575054977E-01   -3.2811349992318362E-01   -1.0976995350289487E-01
H    4.2373584192145186E-01    3.3498600825226765E-02   -4.2540869853012098E-01
H    4.6260050611581327E-01   -1.5086206029230534E-01    4.2909677153878956E-01
H   -3.7738429476257163E-01    3.3022721743399985E-01    8.4537529542987919E-02
H    2.4938215485942991E-01   -4.6192997836587424E-01   -8.0850895881288840E-02
H    8.2077767766227439E-02    4.9753395560165942E-01    2.1130664691320122E-01
H    2.8992019682473263E-01   -1.2923527104021942E-01   -2.0761807081862102E-01
H    1.2261668979392426E-01    3.8070575097166465E-02    2.9238101693257740E-01
H   -2.5061456264352749E-01   -1.6977102431897453E-01   -2.8869394640428919E-01
H   -4.1792483368835576E-01    3.7076375386931171E-01   -4.1546240426591902E-01
H   -2.1008038732258952E-01   -2.4684233252378063E-03    4.1915046532120503E-01
H   -3.4816553110085030E-01    4.5014899599779667E-01    2.2796107904619359E-01
H    2.2587911043189424E-01    4.2386377659763363E-01   -2.2427434625926659E-01
H    2.0199793364013768E-01    4.7402990438965353E-01    3.0200973988727786E-01
H    1.7571302584272819E-01   -1.0001843242091230E-01   -2.9832144351779716E-01
H    1.5183218314087124E-01   -7.6137229086241931E-02    2.0167754747557740E-01
H   -2.7411790713962947E-01   -4.9850489573043465E-02   -1.9799135665872064E-01
H   -2.9800315571484126E-01    3.9998205506593631E-01   -2.7203842583925880E-01
H   -3.2428644435747345E-01   -2.5971258663956803E-02    2.7572638093238133E-01
H    4.3123439363206661E-01    2.2609748798516638E-01    3.2517536531274110E-01
H   -9.5384435645729349E-02    1.0605177491485332E-01   -3.2148727621893991E-01
H   -2.2050833780329432E-02    1.5276731141375743E-01    2.9855786871333112E-01
H   -1.4209913097904625E-01   -3.2061739874774076E-01   -2.9487043505801241E-01
H   -6.8767007750518153E-02   -3.9394845218787700E-01    2.0512966689858197E-01
H    4.0461568693760774E-01   -2.7390264878066417E-01   -2.0144293609655034E-01
H    4.7794669564927744E-01    1.7938263468367538E-01   -1.7482499545840302E-01
H    3.5790323773449290E-01   -3.4723303855408361E-01    1.7851190094897476E-01
H   -2.4869373045559889E-01    2.7434584957960922E-01    4.5593371587925140E-02
H    2.3244713452815882E-01   -2.9429457580108254E-01   -4.1905078604928717E-02
H    2.6194021685291852E-02    4.8059431713749701E-01    2.6735099953403989E-02
H    4.5755580143616859E-01   -5.4559276929586238E-04   -2.3046490426080618E-02
H    2.5130279581592391E-01    2.0570342155659921E-01    4.7695127602330412E-01
H   -2.6755470847593260E-01   -2.2565482207723273E-01   -4.7326527598643375E-01
H   -4.7380499003661558E-01   -5.0054448926722039E-01   -4.5440827294281066E-01
H   -4.2444422566838030E-02   -1.9404427664277996E-02    4.5809426495517008E-01
H    2.9102423282999107E-01    3.3596961414659243E-01    3.7762199000074831E-01
H   -3.7959416886918534E-02   -8.6605116447622740E-02   -3.7393623919887820E-01
H    8.7818475333349272E-02    2.1018884769286286E-01   -4.5135998876317662E-01
H   -3.3475552684315329E-01   -4.6082551749143486E-01    4.5504709924180409E-01
H   -2.0897484185257892E-01    4.1339471727200655E-01   -4.4952281549214573E-02
H    4.6204250314113327E-01   -1.6402909047745834E-01    4.8639463881298126E-02
H   -4.1218023756108590E-01    3.9173414890724775E-02   -1.2237657299768702E-01
H    1.6524260052724182E-01   -2.8981150660041644E-01    1.2606435713595526E-01
H   -3.3057594560717146E-01   -3.9874955656602840E-01    2.1580964415901718E-01
H    3.8913411083964283E-01    4.5360665220050894E-01   -2.1212141666933682E-01
H    3.5309807699307039E-01   -3.6271720243475186E-01    4.3552221156600718E-01
H    2.0545524884630989E-01   -8.2428853337929014E-02   -4.3183370771707486E-01
H    1.6942046518106371E-01   -4.6394857210955875E-02    6.8165396459574229E-02
H   -1.1086616519158371E-01    1.0125023634755516E-01   -6.4479590436209794E-02
H   -1.4690103884576600E-01    4.1757180714351033E-01   -2.8419042848388143E-01
H   -2.9454398207010080E-01    1.3728363831249732E-01    2.8787909642409770E-01
H   -4.3047053236223759E-01    1.7385541809842309E-01    1.0048396707582684E-01
H    7.7064988757367198E-02    4.6903895617453389E-01   -9.6795644749062840E-02
H   -7.4292647928398958E-02    3.2521450687021553E-01    1.0802256277975136E-01
H    2.2088946006230833E-01   -1.8232077596774637E-01   -1.0433188166893838E-01
H    6.9527761465051074E-02   -3.0963348424310727E-02    3.9566551001342160E-01
H   -4.2293525688686373E-01   -3.2614390989038361E-01   -3.9197750293845263E-01
H    4.2570393309355120E-01    3.1768023076204249E-01   -3.9951735001590860E-01
H   -2.7911049109598263E-01   -1.7478477796069075E-01    4.0320293016674918E-01
H   -4.8326968597832637E-01   -4.1626648953691125E-01    3.9115520949440014E-01
H    1.9626992254282305E-01    1.2556838205282606E-01   -3.8746967522508091E-01
H    3.3558337725150378E-01    4.4442172055195395E-01   -4.2929986920547925E-01
H   -1.2258398509942842E-01   -2.3512200382164042E-01    4.3298818238193310E-01
H    1.6729653706881224E-02   -3.7443296800445858E-01   -6.7010269779541137E-02
H   -3.0372708321053143E-01    8.3733006969914148E-02    7.0699358214908498E-02
H   -1.6441667431399817E-01    2.6488005538411419E-01   -1.0884299864791251E-01
H    3.7741737642658346E-01   -5.5578839503893585E-02    1.1253121275123770E-01
H   -1.4227719193741578E-02   -3.9164170691866063E-01    4.0131589224600589E-01
H    2.1073477671444521E-01   -4.1555074241308743E-01   -3.9762854775703438E-01
H    3.6021011976929956E-01    4.5888693478683851E-01    1.2627965939547725E-01
H    3.3630110664704455E-01    2.3392343436669305E-01   -1.2259098576252853E-01
H    4.8577205484923669E-01    8.4449448791318105E-02    3.7740800235892236E-01
H   -2.8926406897309531E-01    1.0835883401778076E-01   -3.7372024685849692E-01
H   -1.3979274480010012E-01   -2.6607746654411912E-01   -9.8684299309674484E-02
H   -1.6369854160079000E-01   -4.1112916319172563E-02    1.0237117372021688E-01
H   -3.4079027642196247E-01    3.8416719638854602E-01    4.5497445808348780E-01
H   -6.7114263645897509E-02    2.0422831662095492E-01   -4.5128660290578548E-01
H    1.3601947777041903E-01    1.8103657821283925E-01    2.2865078721775231E-01
H   -4.3920071151607065E-02   -9.2638885911069432E-02   -2.2496432224969934E-01
H    1.5920975068951743E-01   -2.9577161249026551E-01    2.7503622385875959E-01
H    4.3288709720370833E-01   -1.1583120713229091E-01   -2.7134806471163014E-01
H   -3.6398249077365008E-01    4.0735914163322789E-01   -4.5026740776127706E-02
H    4.5607980012851590E-01   -3.1896425135570844E-01    4.8711260590017742E-02
H   -3.8498914836436959E-01    2.5821803326512194E-01    3.0521436932200879E-01
H   -4.3302781327402839E-02    3.0978975656149443E-01   -3.0152632407375357E-01
H    1.0069859302342610E-02    2.0484774384504373E-01    1.4690077927862413E-01
H    6.1640735807932279E-02   -1.3683873221468046E-01   -1.4321413987427314E-01
H    1.1501034506833141E-01   -1.9021081471580420E-01    3.5678622180259301E-01
H    4.5669749511613195E-01   -2.4178095381713394E-01   -3.5309822049919781E-01
H   -4.8993159506274281E-01    3.6316044912052037E-01   -1.9478735060852576E-01
H   -4.3835872943247278E-01   -2.9515261635562118E-01    1.9847213100319108E-01
N    4.5941445111889856E-01    3.2136083966544632E-01    1.6972731496169363E-01
N    1.5532651341178177E-01    2.8967899491690685E-01   -1.6603952823980803E-01
N    7.3210400141158510E-02    4.0347683750845420E-01    3.6564169918117762E-01
N    4.1528813352596367E-02   -2.9243758575954293E-01   -3.6195386991120448E-01
N   -4.0587313564040092E-02   -2.1032111773985143E-01    1.3804563808896717E-01
N   -3.4467200617331772E-01   -1.7863864112256256E-01   -1.3435953019037775E-01
N   -4.2679013747266659E-01    2.0756268042309531E-01   -3.3027260584448886E-01
N   -4.5847166244077764E-01   -9.6524184498181398E-02    3.3396057116549616E-01
N    4.3533125893172664E-01    2.2218703851842608E-01    5.5402118594690256E-02
N    1.7047916941545341E-01    3.7992227570799819E-01   -5.1714310845914303E-02
N   -2.5962036284786633E-02    4.1863015683825833E-01    2.9055108490425141E-01
N    1.3177263779938625E-01   -3.1651938154691994E-01   -2.8686299002224586E-01
N   -6.4668013199135954E-02   -1.2007675565147963E-01    2.1313664004757246E-01
N   -3.2951931126932754E-01   -2.7781141166531165E-01   -2.0944981527018369E-01
N    4.7403627602087228E-01    1.8347983904661161E-01   -4.4459822579527947E-01
N   -3.6822862246873556E-01   -8.1371836374504292E-02    4.4828623625595310E-01
N    3.7361689704558210E-01    2.9927298020527926E-01    3.3240634502826572E-01
N   -2.9440162468183900E-02    4.1203075882212808E-02   -3.2871927333182932E-01
N    5.1122538503498155E-02    2.1870952276065322E-01    4.2935098076173261E-01
N   -2.0694770335873186E-01   -3.7823454133691725E-01   -4.2566351915888123E-01
N   -1.2638406640485389E-01   -4.5879729693804794E-01    7.4336644000557450E-02
N    4.7056069352892571E-01   -2.0072677534479355E-01   -7.0649926784697573E-02
N   -4.4887776696471549E-01    1.2176515716860432E-01   -1.6759331070703268E-01
N    2.9305258353085517E-01   -2.8129057732609530E-01    1.7128063917071520E-01
N   -1.5727593520889099E-01    4.2945155784971534E-01    1.4755036427564786E-01
N    2.8559511210394267E-01   -3.0483327234570812E-01   -1.4386276575414902E-01
N    1.8130176394556366E-01   -4.6625510318492147E-01    9.0421794998884586E-02
N    4.4701708195770606E-01    9.0873171313338663E-02   -8.6733982190149772E-02
N    3.4272304160473371E-01    1.9516607689312748E-01    4.1326509334615458E-01
N   -2.1440556875061925E-01   -7.0548672966863013E-02   -4.0957786857484402E-01
N   -3.1869932715531168E-01   -4.0912657150323228E-01   -3.5245063434674856E-01
N   -5.2981776317031964E-02    3.3745611914397344E-02    3.5613715936404117E-01
N   -3.2381364335716500E-01    1.9305901297742695E-01    1.9812256273867390E-01
N   -1.3694626735507726E-03    4.7805792100805838E-01   -1.9443412076027583E-01
N   -5.5089975839443937E-02    2.4678103578399577E-01    2.0567270428043013E-02
N    2.2990773808356932E-01   -7.5664139153601956E-02   -1.6878971271440401E-02
N    1.7618520491241754E-01   -2.1943316344143843E-02    4.8312012705452773E-01
N    4.9862993900384633E-01   -3.0694111774690919E-01   -4.7943189591424351E-01
N    4.4490851813465049E-01    4.2433699098967276E-01   -3.0187836383385191E-01
N   -2.7009053545705619E-01   -2.5321854502632535E-01    3.0556534617905617E-01
N   -4.3584970987654315E-01   -4.4841652152694722E-01    2.9463742284828082E-01
N    2.6063859194998551E-01    2.6950551142335144E-01   -2.9095039851338522E-01
N    3.0343217131840672E-01   -4.9121129783043149E-01    4.9112961083581919E-01
N    2.1353662165229770E-02   -1.8770236663877415E-01   -4.8744112122161082E-01
N    6.4147803390782188E-02   -2.3049600995629754E-01    1.2558909622336934E-02
N   -2.3936021654966075E-01    5.1583119734426808E-02   -8.8718618660553732E-03
N   -1.9656735675762138E-01    3.1229905210761510E-01   -2.0536170838099391E-01
N   -4.7864534321734142E-01    8.7888405117208385E-03    2.0905020682803704E-01
N   -1.9314238599884609E-01    4.2503325804739622E-01    3.3164597929045447E-01
N    9.7080248416477694E-02    4.7520477769692249E-01   -3.2795826914461440E-01
N    1.7688500294658849E-01    3.4523175370040132E-01    1.2186934576144727E-01
N    2.2705613937990390E-01    5.5008284288376279E-02   -1.1818154156547529E-01
N    3.0685721214589212E-01   -2.4795453539662338E-02    3.8181809389243371E-01
N   -4.0291905364553576E-01   -7.4966096911187358E-02   -3.7813015269069761E-01
N   -3.2311708666540340E-01   -4.4499240083073555E-01   -1.6835498738510288E-01
N   -2.7294329769675357E-01   -1.5476836480838213E-01    1.7204100361000696E-01
N   -1.5769974616842489E-01   -4.7309991008419655E-01    4.5112750008501312E-01
N    7.9465060152093092E-02    3.9116568116751338E-01   -4.4743997235058719E-01
N    2.7875208188407774E-01    3.2761670942400545E-01    1.8829318788059099E-01
N    1.4301750187263837E-01    9.0451612032479020E-02   -1.8460565761084832E-01
N    3.4230015118932000E-01   -1.0883408161055733E-01    3.1539404128369292E-01
N   -4.2053348680007474E-01    2.6901060758784956E-02   -3.1170621638675233E-01
N   -2.2125034338083985E-01   -4.0954986851447323E-01   -4.8873025543854150E-02
N   -3.5698245386583338E-01   -1.7238368623065767E-01    5.2558796985599586E-02
Zn    4.1913870316499713E-01    3.7207822463808132E-01    2.4497840208803009E-01
Zn    1.3079289281202172E-01    1.7415233616521342E-01   -2.4129091767171229E-01
Zn    1.2392672747865334E-01    3.7894204904424744E-01    4.5663520210211789E-01
Zn   -7.3998837186993377E-02   -3.3271388574854482E-01   -4.5294727243238347E-01
Zn   -8.0864055123064452E-02   -3.2584877413389618E-01    4.7052377686611219E-02
Zn   -3.6920644776728084E-01   -1.2792210416613387E-01   -4.3366351588850244E-02
Zn   -3.7607259082903105E-01    1.6728693888716598E-01   -2.5502114881139093E-01
Zn    4.2600130790646218E-01   -1.2105787662903314E-01    2.5870897408843535E-01
Zn   -1.6837609417980409E-01    3.7303628299866715E-01    2.4049133275127413E-01
Zn    1.3623861203213397E-01   -4.0887383743993849E-01   -2.3680341947154862E-01
Zn    1.2488728750814665E-01    3.8438947285025971E-01    4.5106395673879848E-02
Zn    3.4297688276700738E-01    7.9773692151856257E-02   -4.1418341277557877E-02
Zn    3.3162307202564351E-01    9.1125469292272970E-02    4.5858086720416485E-01
Zn   -3.6376187627933604E-01   -1.2696409887123447E-01   -4.5489291552038147E-01
Zn   -3.7511409277139512E-01   -4.2022577458607002E-01   -2.5950977394528613E-01
Zn   -1.5702175705681284E-01   -1.1561007275946905E-01    2.6319624190938751E-01
       SCALED  T
     &END COORD
     &KIND C
       BASIS_SET DZVP-GTH-PBE
       POTENTIAL GTH-PBE-q4
     &END KIND
     &KIND H
       BASIS_SET DZVP-GTH-PBE
       POTENTIAL GTH-PBE-q1
     &END KIND
     &KIND N
       BASIS_SET DZVP-GTH-PBE
       POTENTIAL GTH-PBE-q5
     &END KIND
     &KIND Zn
       BASIS_SET DZVP-MOLOPT-SR-GTH
       POTENTIAL GTH-PBE-q12
     &END KIND
     &TOPOLOGY
       NUMBER_OF_ATOMS  272
       MULTIPLE_UNIT_CELL  1 1 1
     &END TOPOLOGY
   &END SUBSYS
 &END FORCE_EVAL
 &VIBRATIONAL_ANALYSIS
   DX  1.0000000000000001E-3
   FULLY_PERIODIC
   NPROC_REP 128
 &END VIBRATIONAL_ANALYSIS
