log run.log
shell rm -f log.lammps

variable simulation index zif8-licl
variable minimization equal false

shell cp ../equilibrate/rst/${simulation}.*.rst rst/
read_restart rst/${simulation}.*.rst
include ../potential.in
change_box all triclinic

variable T_ext equal 300

fix NPT all npt temp ${T_ext} ${T_ext} 1000.0 tri ${P_ext} ${P_ext} 10000.0

dump trj all netcdf 1000 ${simulation}.nc type x y z vx vy vz
dump_modify trj append yes

thermo_style one
thermo 1000

restart 10000 rst/${simulation}.*.rst

timestep 1
run 10000000 upto
