@SET SYSNAME perovskite

&GLOBAL
  PRINT_LEVEL LOW
  PROJECT_NAME perovskite
  RUN_TYPE MD
&END GLOBAL

&FORCE_EVAL
  METHOD  QS
  STRESS_TENSOR  DIAGONAL_ANALYTICAL
  &DFT
    BASIS_SET_FILE_NAME BASIS_SET
    BASIS_SET_FILE_NAME GTH_BASIS_SETS
    POTENTIAL_FILE_NAME GTH_POTENTIALS
    &SCF
      MAX_SCF  200
      EPS_SCF   1.E-05
      SCF_GUESS  ATOMIC
      &MIXING  T
        METHOD  PULAY_MIXING
        ALPHA    0.5
        NBUFFER  5
      &END MIXING
      &PRINT
        &RESTART  OFF
        &END RESTART
      &END PRINT
      &OT ON
        PRECONDITIONER FULL_SINGLE_INVERSE
        MINIMIZER DIIS
      &END OT         
    &END SCF
    &QS
      EPS_DEFAULT  1.E-07
    &END QS
    &MGRID
      NGRIDS  4
      CUTOFF     600.
      REL_CUTOFF  40.
    &END MGRID
    &XC
      &XC_FUNCTIONAL  NO_SHORTCUT
        &PBE  T
        &END PBE
      &END XC_FUNCTIONAL
      &VDW_POTENTIAL
        POTENTIAL_TYPE  PAIR_POTENTIAL
        &PAIR_POTENTIAL
          R_CUTOFF     16.0
          TYPE  DFTD3
          PARAMETER_FILE_NAME dftd3.dat
          REFERENCE_FUNCTIONAL PBE
        &END PAIR_POTENTIAL
      &END VDW_POTENTIAL
    &END XC
  &END DFT
  &SUBSYS
    &CELL
      ABC 16.275200 16.275200 17.423100
    &END CELL
    &COORD
  C        12.7751385683        3.7091895333       15.8752882310
  C         3.6129956005       12.5708190743       15.9268703201
  C         3.7205785096        3.5308636650        1.5562931460
  C        12.5455071654       12.6710106400        1.4886097169
  C        11.6378561368       11.8470563515       10.2602702679
  C         4.5266022870        4.4341669694       10.2037786627
  C         4.4176685594       11.6688160362        7.1516965677
  C        11.8895586398        4.5537837966        7.2236943184
  C        15.1546991699        5.2658624159       12.6306335559
  C         1.1233881209       11.0520165845       12.6647318696
  C         5.2461035090        1.1151309434        4.7975345880
  C        10.9968029620       15.1581390216        4.7468129046
  C         9.2568893914       13.4046823178       13.5080278906
  C         7.0132623228        2.9163278484       13.4687144103
  C         2.8936151355        9.2539595905        3.9172754307
  C        13.4155942208        7.0205671767        3.9643576440
  C        13.4866253007        1.1132137394       12.4795972755
  C         2.8739769872       15.2322974962       12.5945615265
  C         1.0723487133        2.8420447664        4.9050761080
  C        15.1264200050       13.4522902311        4.8659083184
  C        10.9257699968        9.2511728935       13.6553479404
  C         5.2644556828        7.0946140387       13.5361597753
  C         7.0627133236       10.9790382610        3.8030803387
  C         9.2840661086        5.3178042484        3.8480165858
  C        10.8969294323        6.9699222718       13.3411867724
  C         5.2544532883        9.4090511838       13.2978495042
  C         6.9890964466        5.3460415822        4.1192747329
  C         9.3644646656       10.9815520599        4.0767468172
  C        13.5162362738       15.1075016745       12.7946303772
  C         2.8833191119        1.2718700082       12.8335598774
  C         1.1463988560       13.4830075246        4.5947419995
  C        15.0455657101        2.8454390029        4.6306219443
  C         1.1917087251        5.3315414463       12.9035398358
  C        15.0860481480       10.9647141480       12.9511913523
  C         5.3227046107       15.0835047257        4.4728572094
  C        10.9727894361        1.2019202873        4.5198830006
  C         6.9449732164       13.4693836959       13.2307150169
  C         9.3261019241        2.8283033210       13.1827104253
  C         2.8173006812        6.9461618991        4.2389855064
  C        13.4388575777        9.3386201090        4.1924465263
  C        11.8640775402        4.4614567616        9.6153173975
  C         4.4322749239       11.7722213472        9.5311101340
  C         4.4272602096        4.4405745524        7.8104680669
  C        11.7048004270       11.8335654019        7.8806015421
  C        12.5740989008       12.5780705409       16.5194702530
  C         3.7056645973        3.6366774854       16.5999748841
  C         3.7117427844       12.5766660678        0.8984374449
  C        12.7077471595        3.6984795983        0.8312143729
  C         8.5268778611        6.9667675574       16.5052875327
  C         7.7076917299        9.2679366812       16.4983653439
  C         6.9700404489        7.7144498795        0.9252217240
  C         9.2708201794        8.5336424002        0.9166420258
  C        15.8914512979       15.1068814155        9.6317355043
  C         0.4352253963        1.1329160386        9.6345957977
  C         1.1745849390       15.8509239682        7.7881312774
  C        15.1493084691        0.3953471546        7.7930638118
  C         9.1234250426        5.7357940653       17.1899237532
  C         7.1380128093       10.5120120517       17.1827464338
  C         5.7267040752        7.1372472944        0.2461272085
  C        10.5079009363        9.1092248202        0.2252104877
  C        15.2943641846       13.8752055437        8.9488290324
  C         1.0060990420        2.3757065492        8.9488532324
  C         2.4163276599       15.2722231708        8.4688887908
  C        13.9098438483        0.9689235129        8.4819644307
  C         9.2929528915        4.6173873159       16.1490418753
  C         7.0190567525       11.6428275218       16.1487514123
  C         4.6084081285        6.9923363261        1.2906478537
  C        11.6377452720        9.2510730438        1.2572017967
  C        15.1234828145       12.7585838740        9.9914514431
  C         1.1229668320        3.5091395446        9.9802380486
  C         3.5361668174       15.1273834964        7.4259971602
  C        12.7830962919        1.1134864314        7.4468583878
  C         7.6735446228        9.3190603886        9.5841546787
  C         8.5887768817        6.9778299479        9.5801340248
  C         9.3203208791        8.6143930651        7.8550592116
  C         6.9793037078        7.6993851128        7.8232383449
  C         0.4630343774        1.1754090260       16.5493481639
  C        15.8218064086       15.1097368157       16.5563430678
  C        15.0930409662        0.4735822955        0.8571688076
  C         1.1585738050       15.8322218029        0.8882897543
  C         8.1323161816       11.0516203806       11.3235481004
  C         8.1077876283        5.2133826638       11.2724365690
  C        11.0776598290        8.1670092582        6.1398216972
  C         5.2483504970        8.1900425567        6.0948426847
  C        16.2761685755        2.9082757245       14.8108969933
  C         0.0247876768       13.3446471344       14.8636629206
  C        13.3351076578       16.3034083690        2.5724195282
  C         2.8913760260        0.0495091848        2.6150275352
  C         7.4727233756        2.6851655381        2.2869688524
  C         8.8054257926       13.5785420255        2.1950576177
  C         2.6514101319        8.7765319418       15.1494515271
  C        13.5384217191        7.3985870051       15.2314258938
  C         0.6691567809       10.8243646847        6.4289942790
  C        15.6088371968        5.4386207297        6.5187296099
  C         5.4858299927        0.6504320635       10.9787614370
  C        10.8729048328       15.5383355105       10.9105883032
  C         5.5695917696       15.8503937506       16.5062172762
  C        10.7228327385        0.4875920147       16.5003258349
  C        15.8017020660       10.6979821026        0.9038535896
  C         0.4690955007        5.5503228038        0.9391565251
  C         2.5677037117        7.7133209433        9.6291989073
  C        13.6892820862        8.6243041736        9.6369526437
  C         8.6251765730        2.5650295313        7.8111882176
  C         7.6714306956       13.6943904559        7.7711777177
  C         8.6365040074        9.7491763738       10.6899276117
  C         7.5669892058        6.4802635137       10.5994758630
  C         9.8207312032        7.6101232156        6.8186437098
  C         6.5446543422        8.6893706834        6.7443957862
  C        15.7759677702        1.6029842664       15.4418733992
  C         0.5680975040       14.6098027799       15.5378624797
  C        14.5933429947       15.7464843950        1.8958844139
  C         1.5961740301        0.5494374355        1.9637614525
  C         8.2116511230        1.2839025128        0.3663451051
  C         8.0837942348       15.0382918107        0.3150287862
  C         1.2459259499        8.0563895202       17.0717243331
  C        14.9990252411        8.1698783323       17.0948640320
  C        16.2006896019        9.4211639798        8.3468736212
  C         0.0538140431        6.9007142149        8.3965635044
  C         6.8955232271       16.2012777974        9.0609787785
  C         9.4176177843        0.0356928314        9.0442026330
  C         7.0895798552        1.5050857656        1.3823452369
  C         9.2020699963       14.7800352621        1.3259257962
  C         1.4716473417        9.1710734681       16.0489275019
  C        14.7562257518        7.0382386947       16.0946512145
  C         1.0492710574        9.6429215439        7.3329093802
  C        15.2128210836        6.6438925391        7.3831063377
  C         6.6689519454        1.0418443696       10.0823570524
  C         9.6565882451       15.1789071393       10.0448857374
  C         6.9152534765        0.0828320892       15.9759929180
  C         9.3610741132       16.3118037346       15.9602409383
  C         0.0195657774        9.3519688455        1.4462446814
  C        16.2611977967        6.9061302376        1.4664058659
  C         1.2216921334        8.2197292185       10.1597485455
  C        15.0512866726        8.1726687439       10.1755787639
  C         8.1280495344        1.2208341657        7.2673492308
  C         8.1581593969       15.0495425943        7.2455307218
  C         4.4950974969       -0.1131935877       15.4533575007
  C        11.7808874083       16.4843928487       15.4202999773
  C        -0.1808089321       11.7757101785        1.9596644454
  C        16.4617215594        4.4935257338        2.0184179928
  C         3.6416911497        8.0272827596       10.6817537365
  C        12.6329805688        8.3490246259       10.7195903719
  C         8.3346627039        3.6448296149        6.7568844159
  C         7.9519162088       12.6373386107        6.6915512846
  H         7.4839190847       10.1607089626        8.8919604730
  H         8.8569584002        6.1631325092        8.8819218135
  H        10.1303423011        8.8732466495        8.5624976301
  H         6.1364875859        7.4871141173        8.5071588401
  H         0.6511294713        2.0184856390       17.2401648007
  H        15.5517457759       14.2962996271       17.2553438371
  H        14.2825370030        0.7314489936        0.1498973390
  H         1.9999126380       15.6164797647        0.2036310327
  H         6.6957656935        9.0234372560       10.0109298699
  H         9.5233870720        7.2938592986       10.0824619480
  H         9.0055003449        9.5565709796        7.3667794526
  H         7.2814438244        6.7346155834        7.3716416001
  H         1.4415301742        0.8803930599       16.1237967228
  H        14.8878587752       15.4268783884       16.0534706844
  H        15.4083576428        1.4166165599        1.3434366422
  H         0.8551326229       14.8691759963        1.3427300711
  H         8.7154892222        8.9680566354       11.4728968112
  H         7.3671032371        7.2500767074       11.3722466709
  H         9.0467220830        7.4151803557        6.0487437431
  H         7.3270474199        8.7990013085        5.9662607952
  H        15.7017160864        0.8223558793       14.6580204636
  H         0.7705231098       15.3792476473       14.7653231768
  H        15.3670219607       15.5552170177        2.6670813239
  H         0.8142206452        0.6636524910        2.7417345036
  H         9.6520272964        9.9201967389       10.2824372636
  H         6.6050558834        6.2420129931       10.1051701987
  H        10.0705848108        6.6431542731        7.2972967204
  H         6.3628183620        9.6903152946        7.1822665933
  H        14.7587134333        1.7694710565       15.8470657474
  H         1.5289455130       14.3689306127       16.0329607612
  H        14.3458615495       14.7774998925        1.4199807177
  H         1.7804573408        1.5482754529        1.5221716734
  H         7.0945947018       10.9566456484       11.7005146064
  H         9.0967959676        5.3829331588       11.7430714825
  H        10.8965423904        9.1570815891        5.6763974872
  H         5.3569652283        7.1651861674        5.6873244486
  H         1.0404634520        2.8188039542       14.4378661656
  H        15.3136820206       13.5163028801       14.3895734259
  H        13.5139134733        1.0187948940        3.0344502464
  H         2.7811700307       15.3024095199        3.0273114308
  H         8.1495071737       11.8852540473       10.5889627234
  H         8.2263875369        4.3890764452       10.5363941056
  H        11.9073609978        8.2892868871        6.8688989094
  H         4.4150943358        8.1749006153        6.8301784998
  H        16.2517604859        3.7411130369       15.5462005320
  H        -0.0986321827       12.5205652430       15.5991297022
  H        12.5055572464       16.4231424930        1.8426780523
  H         3.7247442436        0.0292797922        1.8799225069
  H         8.7927461687       11.3284912536       12.1660687550
  H         7.3954183014        4.8796134880       12.0481311844
  H        11.4111460181        7.4624578719        5.3559828536
  H         4.9635735179        8.8722484997        5.2730142957
  H        15.6177301196        3.1826302559       13.9659972550
  H         0.7388474140       13.0086570667       14.0901622674
  H        13.0015516425       15.5995663804        3.3570672889
  H         3.1778374819        0.7348588703        3.4339277564
  H         8.2696030378        2.1361918882       17.0842665137
  H         8.0293895841       14.2141673631       16.9997294203
  H         2.0917643055        8.0076929895        0.3623869772
  H        14.1681289252        8.2266472860        0.4021246374
  H        -0.1339654151       10.2732646421        9.0521769935
  H        16.3813659330        6.0761070271        9.1344980106
  H         6.0513273604       -0.1219189740        8.3452288488
  H        10.2505532799       16.3666603752        8.3160430463
  H         9.1771779447        1.2327614032        0.9011513113
  H         7.1184897957       15.0649050242        0.8514977167
  H         1.2053284348        7.0874359127       16.5424934535
  H        15.0257114880        9.1306939420       16.5500375331
  H        15.2360393795        9.3696802976        7.8105983756
  H         1.0202155783        6.9269899319        7.8621481891
  H         6.9335916553       15.2325586434        9.5907761989
  H         9.3910629836        0.9963704018        9.5891640603
  H         6.1288887800        1.7256806491        0.8753435272
  H        10.1628786901       14.5658340949        0.8166758242
  H         1.6945178370       10.1350684234       16.5487310288
  H        14.5669078811        6.0780791692       16.6145064340
  H         2.0092860571        9.8621154055        7.8417385060
  H        14.2495789542        6.4343646738        7.8895119879
  H         6.4495079100        2.0059738732        9.5812462492
  H         9.8458011631       14.2184083532        9.5256358263
  H         6.9345962558        0.6052222515        2.0133819493
  H         9.3624471192       15.6601289946        1.9828117112
  H         0.5732820317        9.3244572384       15.4155122502
  H        15.6348807707        6.8916490542       15.4323866713
  H         1.2045182368        8.7434786239        6.7013262458
  H        15.0580941454        7.5227710707        6.7232567574
  H         7.5657984724        1.1936711525       10.7182922752
  H         8.7762909134       15.0336466680       10.7052564889
  H         6.6685390144        2.8851890278        3.0174784417
  H         9.5990260361       13.3647505604        2.9323187777
  H         2.8482219562        9.5719237836       14.4089593720
  H        13.3322397999        6.5929941415       14.5042643637
  H         1.4725454842       11.0209118561        5.6966374031
  H        14.8181354168        5.2263125895        5.7779057065
  H         5.2887266159        1.4467043090       11.7181602965
  H        11.0778848219       14.7320300086       11.6372660978
  H         7.6246639024        3.6122725142        1.6934603707
  H         8.6634594637       12.6657405679        1.5774566115
  H         3.5790093732        8.6328395009       15.7441519189
  H        12.6286531501        7.5268512207       15.8566358915
  H         0.5227314890       11.7521654366        7.0228144972
  H        15.7434793296        4.5267870373        7.1394220807
  H         4.5595769610        0.5086364835       10.3815433784
  H        11.7837558365       15.6672863509       10.2870755767
  H         8.4147134829        2.4861581264        2.8412176863
  H         7.8554630778       13.7639962819        2.7403548116
  H         2.4527792743        7.8274420159       14.6076722259
  H        13.6977128138        8.3464609374       14.6741100874
  H        16.0002933338       10.6292960222        5.8768108461
  H         0.2872816030        5.6184781291        5.9779855551
  H         5.6808446933       15.9764470734       11.5217306504
  H        10.7126599341        0.2105120043       11.4684427449
  H         6.8346045149        1.1378803663       15.6496258730
  H         9.4195415905       15.2768341685       15.5710763771
  H         1.0683592531        9.4307109603        1.7928905276
  H        15.2190732506        6.8326789231        1.8333128608
  H         1.3016806688        9.2746027080       10.4868144128
  H        14.9927709286        7.1372320204       10.5635241911
  H         7.0796368535        1.3032418940        6.9202996629
  H         9.2012495622       14.9745048049        6.8817455606
  H         7.2039645788       15.7589870985       15.0896549554
  H         9.0698954098        0.6906196333       15.1146107665
  H        15.6783845698        9.0655083023        2.3213307789
  H         0.6181870599        7.2072704395        2.3251893927
  H         0.9333032521        7.6198361195       11.0455690619
  H        15.3428974229        8.8255389647       11.0219464408
  H         8.7439462273        0.9332831412        6.3923478770
  H         7.5287713489       15.3521528260        6.3851930530
  H         5.6026260067       14.7548559027       16.6731380325
  H        10.7144963379        1.5726098025       16.7295231336
  H        14.7101095415       10.6676142817        0.7123257887
  H         1.5582143448        5.5751050227        0.7322449573
  H         2.5359733175        6.6176323240        9.4629121045
  H        13.6984710371        9.7089459543        9.4059912674
  H         9.7169425328        2.5311339063        8.0018430966
  H         6.5821670313       13.7216534086        7.9771500709
  H         5.2968024394        0.0483069772        0.0465315370
  H        10.9940464348       16.2320309314        0.0105140212
  H         0.0202598525       10.9660074121       17.3726130791
  H        16.2363290101        5.2658610461       17.4203180251
  H         2.8398171727        8.1861949034        8.6654797855
  H        13.4155835252        8.0918966438        8.7053260549
  H         8.1328872984        2.8329458566        8.7663211901
  H         8.1779774806       13.4080393471        8.7133318824
  H         4.3858032978        0.9778057342       15.2883493829
  H        11.8555730440       15.4026917087       15.1869946302
  H         0.9058954509       11.8766202107        2.1556541820
  H        15.3763862322        4.4009036366        2.2264729091
  H         3.7500405399        9.1186832359       10.8448901889
  H        12.5599010859        7.2678414477       10.9562042866
  H         7.2480080278        3.7492763833        6.5621150703
  H         9.0368036469       12.5430874156        6.4822617290
  H         3.5165644609       15.7506432047       15.7717634576
  H        12.7748438337        0.5642056780       15.7585412151
  H        15.7029848992       12.7564003055        1.6227049293
  H         0.5695263909        3.5049414537        1.6959630705
  H         4.6206233186        7.6161619894       10.3644719507
  H        11.6381724872        8.7015810693       10.3815889692
  H         8.7293772487        4.6241452289        7.0940709902
  H         7.5679584880       11.6492341134        7.0146443219
  H         4.7430462873       15.6831351853       14.4843781144
  H        11.5483556451        0.7569542680       14.4844502171
  H        15.5858522588       11.5406509204        2.9169264012
  H         0.7077069833        4.7441964728        2.9645194604
  H         3.3936531526        7.5499592228       11.6514553145
  H        12.8667361045        8.9000155385       11.6533249154
  H         8.8419035771        3.4094562899        5.7992408174
  H         7.4301920859       12.8883095380        5.7456810029
  H         7.6139462360        6.6954300536       15.9413358106
  H         8.6151928564        9.5221568075       15.9183566879
  H         6.7131419003        8.6250452733        1.4996802946
  H         9.5318873677        7.6267326927        1.4944922850
  H         0.5291468637       14.8361256788       10.1960564305
  H        15.8021849629        1.3885746446       10.2128367758
  H         1.4333382055        0.4856522524        7.2134380005
  H        14.8907896096       15.7634069701        7.2144234272
  H         9.2330997913        7.3903183127       15.7648577597
  H         6.9855594515        8.8468261305       15.7717343854
  H         7.3941564063        6.9975231015        1.6551390341
  H         8.8519043009        9.2532878576        1.6467476969
  H        15.1853298867       15.5321264716       10.3713161816
  H         1.1561582236        0.7131819832       10.3631944741
  H         0.7501951479       15.1339557587        7.0584002704
  H        15.5684230398        1.1158045598        7.0638639234
  H         8.4728917356        5.3865946338        0.5966977104
  H         7.7875633042       10.8364019910        0.5999819749
  H         5.3858756809        7.7919917631       16.8391702056
  H        10.8376469746        8.4558547728       16.8131622188
  H        15.9449969856       13.5241461739        8.1198106288
  H         0.3583420564        2.6982720648        8.1064521305
  H         2.7563481844       15.9258956716        9.3000935243
  H        13.5775883170        0.3133386011        9.3144124084
  H        10.1103760512        5.9696984132        0.2174675786
  H         6.1392737818       10.3037857123        0.1970451502
  H         5.9417409632        6.1455715819       17.2196771230
  H        10.2891378843       10.1021128221       17.2028302372
  H        14.3078139961       14.1092742702        8.4973764356
  H         2.0057994844        2.1667502980        8.5140059914
  H         2.1998952908       14.2803017827        8.9172026114
  H        14.1269919139        1.9607328304        8.9306184856
  H         9.7875225680        3.7376546760       16.6066278402
  H         6.5457420152       12.5346054167       16.6057007643
  H         3.7196425259        6.5090943104        0.8384310605
  H        12.5232479526        9.7309093582        0.7950403385
  H        14.6280697748       11.8785680161        9.5353086401
  H         1.5966642356        4.3998301002        9.5215701132
  H         4.4237785021       14.6430845879        7.8793571202
  H        11.8964739328        1.5930165866        7.9072708544
  H         9.9269752819        4.9355484799       15.2972396818
  H         6.3889202125       11.3499021275       15.2854512735
  H         4.9189959285        6.3593454307        2.1460109176
  H        11.3377353212        9.8856636099        2.1147567617
  H        14.4895329036       13.0786299477       10.8426009144
  H         1.7517706176        3.2187450111       10.8453408435
  H         3.2264266785       14.4954494729        6.5695310419
  H        13.0856850058        1.7497452437        6.5914700426
  H         8.3110901241        4.2964479635       15.7398572205
  H         8.0170874406       11.9355722594       15.7573567660
  H         4.3044045698        7.9823429159        1.6932201328
  H        11.9431237872        8.2607119244        1.6583163264
  H        16.1049151037       12.4373134914       10.4013700410
  H         0.1242087704        3.8026901936       10.3692227043
  H         3.8417094198       16.1174526178        7.0247818548
  H        12.4783402954        0.1241125562        7.0428795842
 Mn        12.2402681072        3.9746763030       12.7018220432
 Mn         4.0344899580       12.3025125199       12.8410676877
 Mn         3.9644803895        4.0324117161        4.7214571936
 Mn        12.2300968361       12.2363841336        4.5656606600
 Mn        12.1725510061       12.1130143151       13.4337552307
 Mn         4.1031842988        4.1658814674       13.2893634213
 Mn         4.1727796327       12.1709025830        3.9889627623
 Mn        12.1800752182        4.1001835814        4.1457756287
  N        12.5413326869        3.8343709755       14.7141539613
  N         3.7634093890       12.4385773846       14.7495565755
  N         3.8482130125        3.7388326918        2.7222446327
  N        12.3937688173       12.5167056855        2.6631470532
  N        11.8688843098       11.9746278811       11.4217770039
  N         4.3739445105        4.3023222856       11.3807919278
  N         4.2906508827       11.8796503983        5.9861660829
  N        12.0236474442        4.3851324840        6.0489931589
  N        14.0433417526        4.8383723430       12.5673469109
  N         2.2347301086       11.4831339925       12.6307142641
  N         4.8156453223        2.2252736478        4.8688874786
  N        11.4021826245       14.0367727911        4.7721726710
  N        10.3683263570       12.9774736587       13.5729034593
  N         5.9017626844        3.3472065823       13.4997939941
  N         3.3223578918       10.3646963311        3.8450782431
  N        13.0092052752        5.8997083489        3.9381949865
  N        13.0504068739        2.2193747677       12.4945952015
  N         3.2602130707       14.1058152145       12.6106926934
  N         2.1926252145        3.2462423645        4.9074908567
  N        14.0146480777       13.0324291556        4.8253291870
  N        11.3610323441       10.3577895540       13.6400206052
  N         4.8771389332        5.9686797718       13.5187229004
  N         5.9428895425       11.3842579452        3.8022006214
  N        10.3958778161        4.8975463089        3.8872213526
  N        11.3150606577        5.9014648578       13.0289026115
  N         4.8482398946       10.5036017434       13.0589991917
  N         5.9099275948        4.9443856678        4.4168684910
  N        10.4503853028       11.4025157253        4.3280822172
  N        13.0979831998       14.0392602142       13.1076543534
  N         3.2890224812        2.3667606252       13.0717248217
  N         2.2260918626       13.0839301384        4.2951521448
  N        13.9590116621        3.2660058411        4.3809826635
  N         2.3062543736        4.9599894925       13.0972975751
  N        13.9702726322       11.3138906190       13.1785656768
  N         4.9607056238       13.9723982629        4.2428257243
  N        11.3598422168        2.3127348196        4.3348128776
  N         5.8310252535       13.0974535079       13.0348458977
  N        10.4419770329        3.1761833019       12.9536370644
  N         3.1782022423        5.8340899360        4.4657944010
  N        13.0498413000       10.4485598876        4.3786004809
  N        11.9840368334        4.2105328005       10.7779376450
  N         4.3071888130       12.0921137209       10.6726120191
  N         4.1846184900        4.2991673454        6.6486969684
  N        12.0090442745       11.9586209529        6.7350278782
  N        12.4380836057       12.3415950512       15.3555677359
  N         3.8312491774        3.9569321561       15.4586644090
  N         3.9526261835       12.4353449258        2.0607501755
  N        12.4013665680        3.8233075149        1.9761451551
  N         8.1181565471        8.1207669233       -0.0001759828
  N         0.0257239667       -0.0163082806        8.7119241279
  N         8.1406054106        8.1516062475        8.7107946828
  N        -0.0033624497        0.0088026379        0.0011687072
  N         8.1442960983        0.0407896080       -0.5111232675
  N        -0.0063583258        8.1214955570       17.9352061680
  N        -0.0071058854        8.1777303668        9.2237384289
  N         8.1498995194       -0.0106173878        8.2004430274
  N        14.0958301899       16.2212341295       12.3950466612
  N         2.2972414656        0.1388958575       12.5084364379
  N        16.1710241126        2.2495351623        4.9652769935
  N         0.0215577057       14.0481173190        4.9828194831
  N        10.3170697389        8.0838339630       13.7399380278
  N         5.8411092725        8.2763830860       13.6231529691
  N         8.2388747920       10.3860869001        3.7410759508
  N         8.1135001171        5.9137510948        3.7335809706
  N         0.0299965978        5.9055261524       12.6644546879
  N        16.2471799311       10.4143603969       12.6616258624