clear
units real
boundary p p p
atom_style full
read_data dut162.data

neighbor 2.0 bin


# ------------------------ MOF-FF FORCE FIELD ------------------------------

pair_style buck6d/coul/gauss/dsf     0.9000    12.0000

pair_coeff     1     1           10304       3.0612245       457.17971       4.5218516      0.60800971    # buck6d->(c3_c2h1@carbazol)|DUT162/gaussian->(c3_c2h1@carbazol)|DUT162 <--> buck6d->(c3_c2h1@carbazol)|DUT162/gaussian->(c3_c2h1@carbazol)|DUT162
pair_coeff     1     2           10304       3.0612245       457.17971       4.5218516      0.60800971    # buck6d->(c3_c2h1@carbazol)|DUT162/gaussian->(c3_c2h1@carbazol)|DUT162 <--> buck6d->(c3_c2n1@carbazol)|DUT162/gaussian->(c3_c2n1@carbazol)|DUT162
pair_coeff     1     3           10304       3.0612245       457.17971       4.5218516      0.60800971    # buck6d->(c3_c2h1@carbazol)|DUT162/gaussian->(c3_c2h1@carbazol)|DUT162 <--> buck6d->(c3_c3@carbazol)|DUT162/gaussian->(c3_c3@carbazol)|DUT162
pair_coeff     1     4           10304       3.0612245       457.17971       4.5218516      0.60800971    # buck6d->(c3_c2h1@carbazol)|DUT162/gaussian->(c3_c2h1@carbazol)|DUT162 <--> buck6d->(c3_c2h1@carbazol)|DUT162/gaussian->(c3_c3@carbazol)|CuPW
pair_coeff     1     5           10304       3.0769231       443.36171       4.2093581      0.60800971    # buck6d->(c3_c2h1@carbazol)|DUT162/gaussian->(c3_c2h1@carbazol)|DUT162 <--> buck6d->(c3_c1o2@co2)|CuPW/gaussian->(c3_c1o2@co2)|CuPW
pair_coeff     1     6           10304       3.0612245       457.17971       4.5218516      0.60800971    # buck6d->(c3_c2h1@carbazol)|DUT162/gaussian->(c3_c2h1@carbazol)|DUT162 <--> buck6d->(c3_c2n1@ph)|DUT162/gaussian->(c3_c2n1@ph)|DUT162
pair_coeff     1     7           10304       3.0612245       457.17971       4.5218516      0.60800971    # buck6d->(c3_c2h1@carbazol)|DUT162/gaussian->(c3_c2h1@carbazol)|DUT162 <--> buck6d->(c3_c2h1@ph)|benzene/gaussian->(c3_c2h1@ph)|benzene
pair_coeff     1     8           10304       3.0612245       457.17971       4.5218516      0.60800971    # buck6d->(c3_c2h1@carbazol)|DUT162/gaussian->(c3_c2h1@carbazol)|DUT162 <--> buck6d->(c3_c3@ph)|DUT162/gaussian->(c3_c3@ph)|DUT162
pair_coeff     1     9       7154.7377               3       358.35904               6      0.60800971    # buck6d->(c3_c2h1@carbazol)|DUT162/gaussian->(c3_c2h1@carbazol)|DUT162 <--> buck6d->(c4_c2h2@me)|DUT162/gaussian->(c4_c2h2@me)|DUT162
pair_coeff     1    10       23689.598       2.8436019        1636.052       12.696549      0.42066711    # buck6d->(c3_c2h1@carbazol)|DUT162/gaussian->(c3_c2h1@carbazol)|DUT162 <--> buck6d->(cu5_cu1o4@cu2)|CuPW/gaussian->(cu5_cu1o4@cu2)|CuPW
pair_coeff     1    11       6157.8178       3.4682081       129.19572      0.78772886      0.73006542    # buck6d->(c3_c2h1@carbazol)|DUT162/gaussian->(c3_c2h1@carbazol)|DUT162 <--> buck6d->(h1_c1@carbazol)|DUT162/gaussian->(h1_c1@carbazol)|DUT162
pair_coeff     1    12       6157.8178       3.4682081       129.19572      0.78772886      0.73006542    # buck6d->(c3_c2h1@carbazol)|DUT162/gaussian->(c3_c2h1@carbazol)|DUT162 <--> buck6d->(h1_c1@ph)|benzene/gaussian->(h1_c1@ph)|benzene
pair_coeff     1    13       6157.8178       3.4682081       129.19572      0.78772886      0.73006542    # buck6d->(c3_c2h1@carbazol)|DUT162/gaussian->(c3_c2h1@carbazol)|DUT162 <--> buck6d->(h1_c1@me)|DUT162/gaussian->(h1_c1@me)|DUT162
pair_coeff     1    14       9029.1333       3.0848329       382.56776       4.0607457      0.61801895    # buck6d->(c3_c2h1@carbazol)|DUT162/gaussian->(c3_c2h1@carbazol)|DUT162 <--> buck6d->(n3_c3@carbazol)|DUT162/gaussian->(n3_c3@carbazol)|DUT162
pair_coeff     1    15       10576.399       3.1746032       377.27092       2.7176691      0.61999948    # buck6d->(c3_c2h1@carbazol)|DUT162/gaussian->(c3_c2h1@carbazol)|DUT162 <--> buck6d->(o2_c1cu1@co2)|CuPW/gaussian->(o2_c1cu1@co2)|CuPW
pair_coeff     2     2           10304       3.0612245       457.17971       4.5218516      0.60800971    # buck6d->(c3_c2n1@carbazol)|DUT162/gaussian->(c3_c2n1@carbazol)|DUT162 <--> buck6d->(c3_c2n1@carbazol)|DUT162/gaussian->(c3_c2n1@carbazol)|DUT162
pair_coeff     2     3           10304       3.0612245       457.17971       4.5218516      0.60800971    # buck6d->(c3_c2n1@carbazol)|DUT162/gaussian->(c3_c2n1@carbazol)|DUT162 <--> buck6d->(c3_c3@carbazol)|DUT162/gaussian->(c3_c3@carbazol)|DUT162
pair_coeff     2     4           10304       3.0612245       457.17971       4.5218516      0.60800971    # buck6d->(c3_c2n1@carbazol)|DUT162/gaussian->(c3_c2n1@carbazol)|DUT162 <--> buck6d->(c3_c2h1@carbazol)|DUT162/gaussian->(c3_c3@carbazol)|CuPW
pair_coeff     2     5           10304       3.0769231       443.36171       4.2093581      0.60800971    # buck6d->(c3_c2n1@carbazol)|DUT162/gaussian->(c3_c2n1@carbazol)|DUT162 <--> buck6d->(c3_c1o2@co2)|CuPW/gaussian->(c3_c1o2@co2)|CuPW
pair_coeff     2     6           10304       3.0612245       457.17971       4.5218516      0.60800971    # buck6d->(c3_c2n1@carbazol)|DUT162/gaussian->(c3_c2n1@carbazol)|DUT162 <--> buck6d->(c3_c2n1@ph)|DUT162/gaussian->(c3_c2n1@ph)|DUT162
pair_coeff     2     7           10304       3.0612245       457.17971       4.5218516      0.60800971    # buck6d->(c3_c2n1@carbazol)|DUT162/gaussian->(c3_c2n1@carbazol)|DUT162 <--> buck6d->(c3_c2h1@ph)|benzene/gaussian->(c3_c2h1@ph)|benzene
pair_coeff     2     8           10304       3.0612245       457.17971       4.5218516      0.60800971    # buck6d->(c3_c2n1@carbazol)|DUT162/gaussian->(c3_c2n1@carbazol)|DUT162 <--> buck6d->(c3_c3@ph)|DUT162/gaussian->(c3_c3@ph)|DUT162
pair_coeff     2     9       7154.7377               3       358.35904               6      0.60800971    # buck6d->(c3_c2n1@carbazol)|DUT162/gaussian->(c3_c2n1@carbazol)|DUT162 <--> buck6d->(c4_c2h2@me)|DUT162/gaussian->(c4_c2h2@me)|DUT162
pair_coeff     2    10       23689.598       2.8436019        1636.052       12.696549      0.42066711    # buck6d->(c3_c2n1@carbazol)|DUT162/gaussian->(c3_c2n1@carbazol)|DUT162 <--> buck6d->(cu5_cu1o4@cu2)|CuPW/gaussian->(cu5_cu1o4@cu2)|CuPW
pair_coeff     2    11       6157.8178       3.4682081       129.19572      0.78772886      0.73006542    # buck6d->(c3_c2n1@carbazol)|DUT162/gaussian->(c3_c2n1@carbazol)|DUT162 <--> buck6d->(h1_c1@carbazol)|DUT162/gaussian->(h1_c1@carbazol)|DUT162
pair_coeff     2    12       6157.8178       3.4682081       129.19572      0.78772886      0.73006542    # buck6d->(c3_c2n1@carbazol)|DUT162/gaussian->(c3_c2n1@carbazol)|DUT162 <--> buck6d->(h1_c1@ph)|benzene/gaussian->(h1_c1@ph)|benzene
pair_coeff     2    13       6157.8178       3.4682081       129.19572      0.78772886      0.73006542    # buck6d->(c3_c2n1@carbazol)|DUT162/gaussian->(c3_c2n1@carbazol)|DUT162 <--> buck6d->(h1_c1@me)|DUT162/gaussian->(h1_c1@me)|DUT162
pair_coeff     2    14       9029.1333       3.0848329       382.56776       4.0607457      0.61801895    # buck6d->(c3_c2n1@carbazol)|DUT162/gaussian->(c3_c2n1@carbazol)|DUT162 <--> buck6d->(n3_c3@carbazol)|DUT162/gaussian->(n3_c3@carbazol)|DUT162
pair_coeff     2    15       10576.399       3.1746032       377.27092       2.7176691      0.61999948    # buck6d->(c3_c2n1@carbazol)|DUT162/gaussian->(c3_c2n1@carbazol)|DUT162 <--> buck6d->(o2_c1cu1@co2)|CuPW/gaussian->(o2_c1cu1@co2)|CuPW
pair_coeff     3     3           10304       3.0612245       457.17971       4.5218516      0.60800971    # buck6d->(c3_c3@carbazol)|DUT162/gaussian->(c3_c3@carbazol)|DUT162 <--> buck6d->(c3_c3@carbazol)|DUT162/gaussian->(c3_c3@carbazol)|DUT162
pair_coeff     3     4           10304       3.0612245       457.17971       4.5218516      0.60800971    # buck6d->(c3_c3@carbazol)|DUT162/gaussian->(c3_c3@carbazol)|DUT162 <--> buck6d->(c3_c2h1@carbazol)|DUT162/gaussian->(c3_c3@carbazol)|CuPW
pair_coeff     3     5           10304       3.0769231       443.36171       4.2093581      0.60800971    # buck6d->(c3_c3@carbazol)|DUT162/gaussian->(c3_c3@carbazol)|DUT162 <--> buck6d->(c3_c1o2@co2)|CuPW/gaussian->(c3_c1o2@co2)|CuPW
pair_coeff     3     6           10304       3.0612245       457.17971       4.5218516      0.60800971    # buck6d->(c3_c3@carbazol)|DUT162/gaussian->(c3_c3@carbazol)|DUT162 <--> buck6d->(c3_c2n1@ph)|DUT162/gaussian->(c3_c2n1@ph)|DUT162
pair_coeff     3     7           10304       3.0612245       457.17971       4.5218516      0.60800971    # buck6d->(c3_c3@carbazol)|DUT162/gaussian->(c3_c3@carbazol)|DUT162 <--> buck6d->(c3_c2h1@ph)|benzene/gaussian->(c3_c2h1@ph)|benzene
pair_coeff     3     8           10304       3.0612245       457.17971       4.5218516      0.60800971    # buck6d->(c3_c3@carbazol)|DUT162/gaussian->(c3_c3@carbazol)|DUT162 <--> buck6d->(c3_c3@ph)|DUT162/gaussian->(c3_c3@ph)|DUT162
pair_coeff     3     9       7154.7377               3       358.35904               6      0.60800971    # buck6d->(c3_c3@carbazol)|DUT162/gaussian->(c3_c3@carbazol)|DUT162 <--> buck6d->(c4_c2h2@me)|DUT162/gaussian->(c4_c2h2@me)|DUT162
pair_coeff     3    10       23689.598       2.8436019        1636.052       12.696549      0.42066711    # buck6d->(c3_c3@carbazol)|DUT162/gaussian->(c3_c3@carbazol)|DUT162 <--> buck6d->(cu5_cu1o4@cu2)|CuPW/gaussian->(cu5_cu1o4@cu2)|CuPW
pair_coeff     3    11       6157.8178       3.4682081       129.19572      0.78772886      0.73006542    # buck6d->(c3_c3@carbazol)|DUT162/gaussian->(c3_c3@carbazol)|DUT162 <--> buck6d->(h1_c1@carbazol)|DUT162/gaussian->(h1_c1@carbazol)|DUT162
pair_coeff     3    12       6157.8178       3.4682081       129.19572      0.78772886      0.73006542    # buck6d->(c3_c3@carbazol)|DUT162/gaussian->(c3_c3@carbazol)|DUT162 <--> buck6d->(h1_c1@ph)|benzene/gaussian->(h1_c1@ph)|benzene
pair_coeff     3    13       6157.8178       3.4682081       129.19572      0.78772886      0.73006542    # buck6d->(c3_c3@carbazol)|DUT162/gaussian->(c3_c3@carbazol)|DUT162 <--> buck6d->(h1_c1@me)|DUT162/gaussian->(h1_c1@me)|DUT162
pair_coeff     3    14       9029.1333       3.0848329       382.56776       4.0607457      0.61801895    # buck6d->(c3_c3@carbazol)|DUT162/gaussian->(c3_c3@carbazol)|DUT162 <--> buck6d->(n3_c3@carbazol)|DUT162/gaussian->(n3_c3@carbazol)|DUT162
pair_coeff     3    15       10576.399       3.1746032       377.27092       2.7176691      0.61999948    # buck6d->(c3_c3@carbazol)|DUT162/gaussian->(c3_c3@carbazol)|DUT162 <--> buck6d->(o2_c1cu1@co2)|CuPW/gaussian->(o2_c1cu1@co2)|CuPW
pair_coeff     4     4           10304       3.0612245       457.17971       4.5218516      0.60800971    # buck6d->(c3_c2h1@carbazol)|DUT162/gaussian->(c3_c3@carbazol)|CuPW <--> buck6d->(c3_c2h1@carbazol)|DUT162/gaussian->(c3_c3@carbazol)|CuPW
pair_coeff     4     5           10304       3.0769231       443.36171       4.2093581      0.60800971    # buck6d->(c3_c2h1@carbazol)|DUT162/gaussian->(c3_c3@carbazol)|CuPW <--> buck6d->(c3_c1o2@co2)|CuPW/gaussian->(c3_c1o2@co2)|CuPW
pair_coeff     4     6           10304       3.0612245       457.17971       4.5218516      0.60800971    # buck6d->(c3_c2h1@carbazol)|DUT162/gaussian->(c3_c3@carbazol)|CuPW <--> buck6d->(c3_c2n1@ph)|DUT162/gaussian->(c3_c2n1@ph)|DUT162
pair_coeff     4     7           10304       3.0612245       457.17971       4.5218516      0.60800971    # buck6d->(c3_c2h1@carbazol)|DUT162/gaussian->(c3_c3@carbazol)|CuPW <--> buck6d->(c3_c2h1@ph)|benzene/gaussian->(c3_c2h1@ph)|benzene
pair_coeff     4     8           10304       3.0612245       457.17971       4.5218516      0.60800971    # buck6d->(c3_c2h1@carbazol)|DUT162/gaussian->(c3_c3@carbazol)|CuPW <--> buck6d->(c3_c3@ph)|DUT162/gaussian->(c3_c3@ph)|DUT162
pair_coeff     4     9       7154.7377               3       358.35904               6      0.60800971    # buck6d->(c3_c2h1@carbazol)|DUT162/gaussian->(c3_c3@carbazol)|CuPW <--> buck6d->(c4_c2h2@me)|DUT162/gaussian->(c4_c2h2@me)|DUT162
pair_coeff     4    10       23689.598       2.8436019        1636.052       12.696549      0.42066711    # buck6d->(c3_c2h1@carbazol)|DUT162/gaussian->(c3_c3@carbazol)|CuPW <--> buck6d->(cu5_cu1o4@cu2)|CuPW/gaussian->(cu5_cu1o4@cu2)|CuPW
pair_coeff     4    11       6157.8178       3.4682081       129.19572      0.78772886      0.73006542    # buck6d->(c3_c2h1@carbazol)|DUT162/gaussian->(c3_c3@carbazol)|CuPW <--> buck6d->(h1_c1@carbazol)|DUT162/gaussian->(h1_c1@carbazol)|DUT162
pair_coeff     4    12       6157.8178       3.4682081       129.19572      0.78772886      0.73006542    # buck6d->(c3_c2h1@carbazol)|DUT162/gaussian->(c3_c3@carbazol)|CuPW <--> buck6d->(h1_c1@ph)|benzene/gaussian->(h1_c1@ph)|benzene
pair_coeff     4    13       6157.8178       3.4682081       129.19572      0.78772886      0.73006542    # buck6d->(c3_c2h1@carbazol)|DUT162/gaussian->(c3_c3@carbazol)|CuPW <--> buck6d->(h1_c1@me)|DUT162/gaussian->(h1_c1@me)|DUT162
pair_coeff     4    14       9029.1333       3.0848329       382.56776       4.0607457      0.61801895    # buck6d->(c3_c2h1@carbazol)|DUT162/gaussian->(c3_c3@carbazol)|CuPW <--> buck6d->(n3_c3@carbazol)|DUT162/gaussian->(n3_c3@carbazol)|DUT162
pair_coeff     4    15       10576.399       3.1746032       377.27092       2.7176691      0.61999948    # buck6d->(c3_c2h1@carbazol)|DUT162/gaussian->(c3_c3@carbazol)|CuPW <--> buck6d->(o2_c1cu1@co2)|CuPW/gaussian->(o2_c1cu1@co2)|CuPW
pair_coeff     5     5           10304       3.0927835       429.89352       3.9170177      0.60800971    # buck6d->(c3_c1o2@co2)|CuPW/gaussian->(c3_c1o2@co2)|CuPW <--> buck6d->(c3_c1o2@co2)|CuPW/gaussian->(c3_c1o2@co2)|CuPW
pair_coeff     5     6           10304       3.0769231       443.36171       4.2093581      0.60800971    # buck6d->(c3_c1o2@co2)|CuPW/gaussian->(c3_c1o2@co2)|CuPW <--> buck6d->(c3_c2n1@ph)|DUT162/gaussian->(c3_c2n1@ph)|DUT162
pair_coeff     5     7           10304       3.0769231       443.36171       4.2093581      0.60800971    # buck6d->(c3_c1o2@co2)|CuPW/gaussian->(c3_c1o2@co2)|CuPW <--> buck6d->(c3_c2h1@ph)|benzene/gaussian->(c3_c2h1@ph)|benzene
pair_coeff     5     8           10304       3.0769231       443.36171       4.2093581      0.60800971    # buck6d->(c3_c1o2@co2)|CuPW/gaussian->(c3_c1o2@co2)|CuPW <--> buck6d->(c3_c3@ph)|DUT162/gaussian->(c3_c3@ph)|DUT162
pair_coeff     5     9       7154.7377       3.0150754       347.74176       5.5933807      0.60800971    # buck6d->(c3_c1o2@co2)|CuPW/gaussian->(c3_c1o2@co2)|CuPW <--> buck6d->(c4_c2h2@me)|DUT162/gaussian->(c4_c2h2@me)|DUT162
pair_coeff     5    10       23689.598       2.8571429       1590.0769        11.87959      0.42066711    # buck6d->(c3_c1o2@co2)|CuPW/gaussian->(c3_c1o2@co2)|CuPW <--> buck6d->(cu5_cu1o4@cu2)|CuPW/gaussian->(cu5_cu1o4@cu2)|CuPW
pair_coeff     5    11       6157.8178       3.4883721        124.7792      0.72632262      0.73006542    # buck6d->(c3_c1o2@co2)|CuPW/gaussian->(c3_c1o2@co2)|CuPW <--> buck6d->(h1_c1@carbazol)|DUT162/gaussian->(h1_c1@carbazol)|DUT162
pair_coeff     5    12       6157.8178       3.4883721        124.7792      0.72632262      0.73006542    # buck6d->(c3_c1o2@co2)|CuPW/gaussian->(c3_c1o2@co2)|CuPW <--> buck6d->(h1_c1@ph)|benzene/gaussian->(h1_c1@ph)|benzene
pair_coeff     5    13       6157.8178       3.4883721        124.7792      0.72632262      0.73006542    # buck6d->(c3_c1o2@co2)|CuPW/gaussian->(c3_c1o2@co2)|CuPW <--> buck6d->(h1_c1@me)|DUT162/gaussian->(h1_c1@me)|DUT162
pair_coeff     5    14       9029.1333       3.1007752       370.91684       3.7780255      0.61801895    # buck6d->(c3_c1o2@co2)|CuPW/gaussian->(c3_c1o2@co2)|CuPW <--> buck6d->(n3_c3@carbazol)|DUT162/gaussian->(n3_c3@carbazol)|DUT162
pair_coeff     5    15       10576.399       3.1914894       365.45138       2.5231391      0.61999948    # buck6d->(c3_c1o2@co2)|CuPW/gaussian->(c3_c1o2@co2)|CuPW <--> buck6d->(o2_c1cu1@co2)|CuPW/gaussian->(o2_c1cu1@co2)|CuPW
pair_coeff     6     6           10304       3.0612245       457.17971       4.5218516      0.60800971    # buck6d->(c3_c2n1@ph)|DUT162/gaussian->(c3_c2n1@ph)|DUT162 <--> buck6d->(c3_c2n1@ph)|DUT162/gaussian->(c3_c2n1@ph)|DUT162
pair_coeff     6     7           10304       3.0612245       457.17971       4.5218516      0.60800971    # buck6d->(c3_c2n1@ph)|DUT162/gaussian->(c3_c2n1@ph)|DUT162 <--> buck6d->(c3_c2h1@ph)|benzene/gaussian->(c3_c2h1@ph)|benzene
pair_coeff     6     8           10304       3.0612245       457.17971       4.5218516      0.60800971    # buck6d->(c3_c2n1@ph)|DUT162/gaussian->(c3_c2n1@ph)|DUT162 <--> buck6d->(c3_c3@ph)|DUT162/gaussian->(c3_c3@ph)|DUT162
pair_coeff     6     9       7154.7377               3       358.35904               6      0.60800971    # buck6d->(c3_c2n1@ph)|DUT162/gaussian->(c3_c2n1@ph)|DUT162 <--> buck6d->(c4_c2h2@me)|DUT162/gaussian->(c4_c2h2@me)|DUT162
pair_coeff     6    10       23689.598       2.8436019        1636.052       12.696549      0.42066711    # buck6d->(c3_c2n1@ph)|DUT162/gaussian->(c3_c2n1@ph)|DUT162 <--> buck6d->(cu5_cu1o4@cu2)|CuPW/gaussian->(cu5_cu1o4@cu2)|CuPW
pair_coeff     6    11       6157.8178       3.4682081       129.19572      0.78772886      0.73006542    # buck6d->(c3_c2n1@ph)|DUT162/gaussian->(c3_c2n1@ph)|DUT162 <--> buck6d->(h1_c1@carbazol)|DUT162/gaussian->(h1_c1@carbazol)|DUT162
pair_coeff     6    12       6157.8178       3.4682081       129.19572      0.78772886      0.73006542    # buck6d->(c3_c2n1@ph)|DUT162/gaussian->(c3_c2n1@ph)|DUT162 <--> buck6d->(h1_c1@ph)|benzene/gaussian->(h1_c1@ph)|benzene
pair_coeff     6    13       6157.8178       3.4682081       129.19572      0.78772886      0.73006542    # buck6d->(c3_c2n1@ph)|DUT162/gaussian->(c3_c2n1@ph)|DUT162 <--> buck6d->(h1_c1@me)|DUT162/gaussian->(h1_c1@me)|DUT162
pair_coeff     6    14       9029.1333       3.0848329       382.56776       4.0607457      0.61801895    # buck6d->(c3_c2n1@ph)|DUT162/gaussian->(c3_c2n1@ph)|DUT162 <--> buck6d->(n3_c3@carbazol)|DUT162/gaussian->(n3_c3@carbazol)|DUT162
pair_coeff     6    15       10576.399       3.1746032       377.27092       2.7176691      0.61999948    # buck6d->(c3_c2n1@ph)|DUT162/gaussian->(c3_c2n1@ph)|DUT162 <--> buck6d->(o2_c1cu1@co2)|CuPW/gaussian->(o2_c1cu1@co2)|CuPW
pair_coeff     7     7           10304       3.0612245       457.17971       4.5218516      0.60800971    # buck6d->(c3_c2h1@ph)|benzene/gaussian->(c3_c2h1@ph)|benzene <--> buck6d->(c3_c2h1@ph)|benzene/gaussian->(c3_c2h1@ph)|benzene
pair_coeff     7     8           10304       3.0612245       457.17971       4.5218516      0.60800971    # buck6d->(c3_c2h1@ph)|benzene/gaussian->(c3_c2h1@ph)|benzene <--> buck6d->(c3_c3@ph)|DUT162/gaussian->(c3_c3@ph)|DUT162
pair_coeff     7     9       7154.7377               3       358.35904               6      0.60800971    # buck6d->(c3_c2h1@ph)|benzene/gaussian->(c3_c2h1@ph)|benzene <--> buck6d->(c4_c2h2@me)|DUT162/gaussian->(c4_c2h2@me)|DUT162
pair_coeff     7    10       23689.598       2.8436019        1636.052       12.696549      0.42066711    # buck6d->(c3_c2h1@ph)|benzene/gaussian->(c3_c2h1@ph)|benzene <--> buck6d->(cu5_cu1o4@cu2)|CuPW/gaussian->(cu5_cu1o4@cu2)|CuPW
pair_coeff     7    11       6157.8178       3.4682081       129.19572      0.78772886      0.73006542    # buck6d->(c3_c2h1@ph)|benzene/gaussian->(c3_c2h1@ph)|benzene <--> buck6d->(h1_c1@carbazol)|DUT162/gaussian->(h1_c1@carbazol)|DUT162
pair_coeff     7    12       6157.8178       3.4682081       129.19572      0.78772886      0.73006542    # buck6d->(c3_c2h1@ph)|benzene/gaussian->(c3_c2h1@ph)|benzene <--> buck6d->(h1_c1@ph)|benzene/gaussian->(h1_c1@ph)|benzene
pair_coeff     7    13       6157.8178       3.4682081       129.19572      0.78772886      0.73006542    # buck6d->(c3_c2h1@ph)|benzene/gaussian->(c3_c2h1@ph)|benzene <--> buck6d->(h1_c1@me)|DUT162/gaussian->(h1_c1@me)|DUT162
pair_coeff     7    14       9029.1333       3.0848329       382.56776       4.0607457      0.61801895    # buck6d->(c3_c2h1@ph)|benzene/gaussian->(c3_c2h1@ph)|benzene <--> buck6d->(n3_c3@carbazol)|DUT162/gaussian->(n3_c3@carbazol)|DUT162
pair_coeff     7    15       10576.399       3.1746032       377.27092       2.7176691      0.61999948    # buck6d->(c3_c2h1@ph)|benzene/gaussian->(c3_c2h1@ph)|benzene <--> buck6d->(o2_c1cu1@co2)|CuPW/gaussian->(o2_c1cu1@co2)|CuPW
pair_coeff     8     8           10304       3.0612245       457.17971       4.5218516      0.60800971    # buck6d->(c3_c3@ph)|DUT162/gaussian->(c3_c3@ph)|DUT162 <--> buck6d->(c3_c3@ph)|DUT162/gaussian->(c3_c3@ph)|DUT162
pair_coeff     8     9       7154.7377               3       358.35904               6      0.60800971    # buck6d->(c3_c3@ph)|DUT162/gaussian->(c3_c3@ph)|DUT162 <--> buck6d->(c4_c2h2@me)|DUT162/gaussian->(c4_c2h2@me)|DUT162
pair_coeff     8    10       23689.598       2.8436019        1636.052       12.696549      0.42066711    # buck6d->(c3_c3@ph)|DUT162/gaussian->(c3_c3@ph)|DUT162 <--> buck6d->(cu5_cu1o4@cu2)|CuPW/gaussian->(cu5_cu1o4@cu2)|CuPW
pair_coeff     8    11       6157.8178       3.4682081       129.19572      0.78772886      0.73006542    # buck6d->(c3_c3@ph)|DUT162/gaussian->(c3_c3@ph)|DUT162 <--> buck6d->(h1_c1@carbazol)|DUT162/gaussian->(h1_c1@carbazol)|DUT162
pair_coeff     8    12       6157.8178       3.4682081       129.19572      0.78772886      0.73006542    # buck6d->(c3_c3@ph)|DUT162/gaussian->(c3_c3@ph)|DUT162 <--> buck6d->(h1_c1@ph)|benzene/gaussian->(h1_c1@ph)|benzene
pair_coeff     8    13       6157.8178       3.4682081       129.19572      0.78772886      0.73006542    # buck6d->(c3_c3@ph)|DUT162/gaussian->(c3_c3@ph)|DUT162 <--> buck6d->(h1_c1@me)|DUT162/gaussian->(h1_c1@me)|DUT162
pair_coeff     8    14       9029.1333       3.0848329       382.56776       4.0607457      0.61801895    # buck6d->(c3_c3@ph)|DUT162/gaussian->(c3_c3@ph)|DUT162 <--> buck6d->(n3_c3@carbazol)|DUT162/gaussian->(n3_c3@carbazol)|DUT162
pair_coeff     8    15       10576.399       3.1746032       377.27092       2.7176691      0.61999948    # buck6d->(c3_c3@ph)|DUT162/gaussian->(c3_c3@ph)|DUT162 <--> buck6d->(o2_c1cu1@co2)|CuPW/gaussian->(o2_c1cu1@co2)|CuPW
pair_coeff     9     9            4968       2.9411765       280.22525       7.9168726      0.60800971    # buck6d->(c4_c2h2@me)|DUT162/gaussian->(c4_c2h2@me)|DUT162 <--> buck6d->(c4_c2h2@me)|DUT162/gaussian->(c4_c2h2@me)|DUT162
pair_coeff     9    10        16449.23       2.7906977       1271.5135       16.514664      0.42066711    # buck6d->(c4_c2h2@me)|DUT162/gaussian->(c4_c2h2@me)|DUT162 <--> buck6d->(cu5_cu1o4@cu2)|CuPW/gaussian->(cu5_cu1o4@cu2)|CuPW
pair_coeff     9    11       4275.7736       3.3898305       102.89611       1.0848184      0.73006542    # buck6d->(c4_c2h2@me)|DUT162/gaussian->(c4_c2h2@me)|DUT162 <--> buck6d->(h1_c1@carbazol)|DUT162/gaussian->(h1_c1@carbazol)|DUT162
pair_coeff     9    12       4275.7736       3.3898305       102.89611       1.0848184      0.73006542    # buck6d->(c4_c2h2@me)|DUT162/gaussian->(c4_c2h2@me)|DUT162 <--> buck6d->(h1_c1@ph)|benzene/gaussian->(h1_c1@ph)|benzene
pair_coeff     9    13       4275.7736       3.3898305       102.89611       1.0848184      0.73006542    # buck6d->(c4_c2h2@me)|DUT162/gaussian->(c4_c2h2@me)|DUT162 <--> buck6d->(h1_c1@me)|DUT162/gaussian->(h1_c1@me)|DUT162
pair_coeff     9    14       6269.5148         3.02267        300.1523       5.3998098      0.61801895    # buck6d->(c4_c2h2@me)|DUT162/gaussian->(c4_c2h2@me)|DUT162 <--> buck6d->(n3_c3@carbazol)|DUT162/gaussian->(n3_c3@carbazol)|DUT162
pair_coeff     9    15       7343.8824       3.1088083       297.03952       3.6436247      0.61999948    # buck6d->(c4_c2h2@me)|DUT162/gaussian->(c4_c2h2@me)|DUT162 <--> buck6d->(o2_c1cu1@co2)|CuPW/gaussian->(o2_c1cu1@co2)|CuPW
pair_coeff    10    10           54464       2.6548673       5679.4311       33.208515      0.34105936    # buck6d->(cu5_cu1o4@cu2)|CuPW/gaussian->(cu5_cu1o4@cu2)|CuPW <--> buck6d->(cu5_cu1o4@cu2)|CuPW/gaussian->(cu5_cu1o4@cu2)|CuPW
pair_coeff    10    11       14157.243       3.1914894       489.18197       2.5231391      0.45538909    # buck6d->(cu5_cu1o4@cu2)|CuPW/gaussian->(cu5_cu1o4@cu2)|CuPW <--> buck6d->(h1_c1@carbazol)|DUT162/gaussian->(h1_c1@carbazol)|DUT162
pair_coeff    10    12       14157.243       3.1914894       489.18197       2.5231391      0.45538909    # buck6d->(cu5_cu1o4@cu2)|CuPW/gaussian->(cu5_cu1o4@cu2)|CuPW <--> buck6d->(h1_c1@ph)|benzene/gaussian->(h1_c1@ph)|benzene
pair_coeff    10    13       14157.243       3.1914894       489.18197       2.5231391      0.45538909    # buck6d->(cu5_cu1o4@cu2)|CuPW/gaussian->(cu5_cu1o4@cu2)|CuPW <--> buck6d->(h1_c1@me)|DUT162/gaussian->(h1_c1@me)|DUT162
pair_coeff    10    14       20758.593       2.8639618       1373.5572       11.489674      0.42393983    # buck6d->(cu5_cu1o4@cu2)|CuPW/gaussian->(cu5_cu1o4@cu2)|CuPW <--> buck6d->(n3_c3@carbazol)|DUT162/gaussian->(n3_c3@carbazol)|DUT162
pair_coeff    10    15       24315.863       2.9411765       1371.5617       7.9168726      0.42457748    # buck6d->(cu5_cu1o4@cu2)|CuPW/gaussian->(cu5_cu1o4@cu2)|CuPW <--> buck6d->(o2_c1cu1@co2)|CuPW/gaussian->(o2_c1cu1@co2)|CuPW
pair_coeff    11    11            3680               4          32.805      0.10690769       0.9771554    # buck6d->(h1_c1@carbazol)|DUT162/gaussian->(h1_c1@carbazol)|DUT162 <--> buck6d->(h1_c1@carbazol)|DUT162/gaussian->(h1_c1@carbazol)|DUT162
pair_coeff    11    12            3680               4          32.805      0.10690769       0.9771554    # buck6d->(h1_c1@carbazol)|DUT162/gaussian->(h1_c1@carbazol)|DUT162 <--> buck6d->(h1_c1@ph)|benzene/gaussian->(h1_c1@ph)|benzene
pair_coeff    11    13            3680               4          32.805      0.10690769       0.9771554    # buck6d->(h1_c1@carbazol)|DUT162/gaussian->(h1_c1@carbazol)|DUT162 <--> buck6d->(h1_c1@me)|DUT162/gaussian->(h1_c1@me)|DUT162
pair_coeff    11    14       5395.9392       3.4985423       107.44754      0.69731507       0.7475861    # buck6d->(h1_c1@carbazol)|DUT162/gaussian->(h1_c1@carbazol)|DUT162 <--> buck6d->(n3_c3@carbazol)|DUT162/gaussian->(n3_c3@carbazol)|DUT162
pair_coeff    11    15       6320.6076       3.6144578       103.50278      0.44181916      0.75109952    # buck6d->(h1_c1@carbazol)|DUT162/gaussian->(h1_c1@carbazol)|DUT162 <--> buck6d->(o2_c1cu1@co2)|CuPW/gaussian->(o2_c1cu1@co2)|CuPW
pair_coeff    12    12            3680               4          32.805      0.10690769       0.9771554    # buck6d->(h1_c1@ph)|benzene/gaussian->(h1_c1@ph)|benzene <--> buck6d->(h1_c1@ph)|benzene/gaussian->(h1_c1@ph)|benzene
pair_coeff    12    13            3680               4          32.805      0.10690769       0.9771554    # buck6d->(h1_c1@ph)|benzene/gaussian->(h1_c1@ph)|benzene <--> buck6d->(h1_c1@me)|DUT162/gaussian->(h1_c1@me)|DUT162
pair_coeff    12    14       5395.9392       3.4985423       107.44754      0.69731507       0.7475861    # buck6d->(h1_c1@ph)|benzene/gaussian->(h1_c1@ph)|benzene <--> buck6d->(n3_c3@carbazol)|DUT162/gaussian->(n3_c3@carbazol)|DUT162
pair_coeff    12    15       6320.6076       3.6144578       103.50278      0.44181916      0.75109952    # buck6d->(h1_c1@ph)|benzene/gaussian->(h1_c1@ph)|benzene <--> buck6d->(o2_c1cu1@co2)|CuPW/gaussian->(o2_c1cu1@co2)|CuPW
pair_coeff    13    13            3680               4          32.805      0.10690769       0.9771554    # buck6d->(h1_c1@me)|DUT162/gaussian->(h1_c1@me)|DUT162 <--> buck6d->(h1_c1@me)|DUT162/gaussian->(h1_c1@me)|DUT162
pair_coeff    13    14       5395.9392       3.4985423       107.44754      0.69731507       0.7475861    # buck6d->(h1_c1@me)|DUT162/gaussian->(h1_c1@me)|DUT162 <--> buck6d->(n3_c3@carbazol)|DUT162/gaussian->(n3_c3@carbazol)|DUT162
pair_coeff    13    15       6320.6076       3.6144578       103.50278      0.44181916      0.75109952    # buck6d->(h1_c1@me)|DUT162/gaussian->(h1_c1@me)|DUT162 <--> buck6d->(o2_c1cu1@co2)|CuPW/gaussian->(o2_c1cu1@co2)|CuPW
pair_coeff    14    14            7912       3.1088083       320.01829       3.6436247      0.62853936    # buck6d->(n3_c3@carbazol)|DUT162/gaussian->(n3_c3@carbazol)|DUT162 <--> buck6d->(n3_c3@carbazol)|DUT162/gaussian->(n3_c3@carbazol)|DUT162
pair_coeff    14    15         9267.83             3.2       315.15947       2.4307994      0.63062312    # buck6d->(n3_c3@carbazol)|DUT162/gaussian->(n3_c3@carbazol)|DUT162 <--> buck6d->(o2_c1cu1@co2)|CuPW/gaussian->(o2_c1cu1@co2)|CuPW
pair_coeff    15    15           10856       3.2967033        308.7755       1.6022517      0.63272774    # buck6d->(o2_c1cu1@co2)|CuPW/gaussian->(o2_c1cu1@co2)|CuPW <--> buck6d->(o2_c1cu1@co2)|CuPW/gaussian->(o2_c1cu1@co2)|CuPW

bond_style hybrid class2 morse

bond_coeff     6 class2     1.458000   390.058680  -994.649634  1479.541331    # mm3->(c3_c2h1@carbazol,c3_c3@carbazol)|DUT162
bond_coeff    19 morse    50.000000    1.451345     1.914000    # morse->(cu5_cu1o4@cu2,o2_c1cu1@co2)|CuPW
bond_coeff    14 class2     1.394000   509.335200 -1298.804760  1931.972080    # mm3->(c3_c2h1@ph,c3_c3@ph)|DUT162
bond_coeff    13 class2     1.094000   390.634200  -996.117210  1481.724350    # mm3->(c3_c2h1@ph,h1_c1@ph)|benzene
bond_coeff     3 class2     1.458000   390.058680  -994.649634  1479.541331    # mm3->(c3_c2h1@carbazol,c3_c2n1@carbazol)|DUT162
bond_coeff     5 class2     1.266000   797.814600 -2034.427230  3026.210505    # mm3->(c3_c2n1@carbazol,n3_c3@carbazol)|DUT162
bond_coeff     9 class2     1.278000   585.591600 -1493.258580  2221.222138    # mm3->(c3_c1o2@co2,o2_c1cu1@co2)|CuPW
bond_coeff    10 class2     1.458000   390.058680  -994.649634  1479.541331    # mm3->(c3_c2h1@ph,c3_c2n1@ph)|DUT162
bond_coeff    11 class2     1.266000   797.814600 -2034.427230  3026.210505    # mm3->(c3_c2n1@ph,n3_c3@carbazol)|DUT162
bond_coeff     4 class2     1.458000   390.058680  -994.649634  1479.541331    # mm3->(c3_c2n1@carbazol,c3_c3@carbazol)|DUT162
bond_coeff     2 class2     1.094000   390.634200  -996.117210  1481.724350    # mm3->(c3_c2h1@carbazol,h1_c1@carbazol)|DUT162
bond_coeff    12 class2     1.394000   509.335200 -1298.804760  1931.972080    # mm3->(c3_c2h1@ph,c3_c2h1@ph)|benzene