# Adapt the two following lines to the actual system
@SET SYSNAME ZIF-CH3
# ZIF8-CH3: 16.991  ZIF8-Cl: 16.998  ZIF8-Br: 16.985
@SET CELL 16.991

&GLOBAL
    PRINT_LEVEL MEDIUM
    PROJECT_NAME ${SYSNAME}
    RUN_TYPE GEO_OPT
&END GLOBAL

&FORCE_EVAL
    METHOD  QS
    STRESS_TENSOR  DIAGONAL_ANALYTICAL
    &DFT
        BASIS_SET_FILE_NAME ../data/BASIS_SET
        BASIS_SET_FILE_NAME ../data/BASIS_MOLOPT
        POTENTIAL_FILE_NAME ../data/POTENTIAL
        &SCF
            MAX_SCF    200
            EPS_SCF    1e-5
            SCF_GUESS  ATOMIC
            &MIXING  T
                METHOD   PULAY_MIXING
                ALPHA    0.5
                NBUFFER  5
            &END MIXING
            &PRINT
                &RESTART OFF
                &END RESTART
            &END PRINT
            &OT ON
                PRECONDITIONER  FULL_SINGLE_INVERSE
                MINIMIZER       DIIS
            &END OT
        &END SCF
        &QS
            EPS_DEFAULT     1e-7
        &END QS
        &MGRID
            NGRIDS 4
            CUTOFF 600
            REL_CUTOFF 40
        &END MGRID
        &XC
            &XC_FUNCTIONAL PBE
            &END XC_FUNCTIONAL
            DENSITY_CUTOFF      1e-10
            GRADIENT_CUTOFF     1e-10
            TAU_CUTOFF          1e-10
            &VDW_POTENTIAL
                POTENTIAL_TYPE  PAIR_POTENTIAL
                &PAIR_POTENTIAL
                    R_CUTOFF    16
                    TYPE        DFTD3
                    PARAMETER_FILE_NAME ../data/dftd3.dat
                    REFERENCE_FUNCTIONAL PBE
                    LONG_RANGE_CORRECTION T
                &END PAIR_POTENTIAL
            &END VDW_POTENTIAL
        &END XC
    &END DFT
    &SUBSYS
        &TOPOLOGY
            COORD_FILE ${SYSNAME}.pdb
            COORD_FILE_FORMAT PDB
            CONN_FILE_FORMAT OFF
        &END TOPOLOGY
        &CELL
            ABC ${CELL} ${CELL} ${CELL}
            ALPHA_BETA_GAMMA 90.0 90.0 90.0
            MULTIPLE_UNIT_CELL  1 1 1
            PERIODIC XYZ
        &END CELL
        &KIND C
            BASIS_SET DZVP-GTH-PBE
            POTENTIAL GTH-PBE-q4
        &END KIND
        &KIND H
            # Use deuterium instead of hydrogen
            MASS 2.014101777
            BASIS_SET DZVP-GTH-PBE
            POTENTIAL GTH-PBE-q1
        &END KIND
        &KIND N
            BASIS_SET DZVP-GTH-PBE
            POTENTIAL GTH-PBE-q5
        &END KIND
        &KIND Zn
            BASIS_SET DZVP-MOLOPT-SR-GTH
            POTENTIAL GTH-PBE-q12
        &END KIND
        &KIND Cl
            BASIS_SET DZVP-MOLOPT-SR-GTH
            POTENTIAL GTH-PBE-q7
        &END KIND
        &KIND Br
            BASIS_SET DZVP-MOLOPT-SR-GTH
            POTENTIAL GTH-PBE-q7
        &END KIND
    &END SUBSYS
&END FORCE_EVAL

&MOTION
    &GEO_OPT
        TYPE MINIMIZATION
        MAX_ITER 200
        OPTIMIZER CG
    &END GEO_OPT
    &PRINT
        &RESTART
            FILENAME =${SYSNAME}.min.rst
            &EACH
                GEO_OPT 1
            &END EACH
        &END RESTART
    &END PRINT
&END MOTION
