@SET SYSNAME poss

&GLOBAL
  PRINT_LEVEL LOW
  PROJECT_NAME poss
  RUN_TYPE CELL_OPT
&END GLOBAL

&FORCE_EVAL
  METHOD  QS
  STRESS_TENSOR  DIAGONAL_ANALYTICAL
  &DFT
    BASIS_SET_FILE_NAME BASIS_SET
    BASIS_SET_FILE_NAME GTH_BASIS_SETS
    POTENTIAL_FILE_NAME GTH_POTENTIALS
    &SCF
      MAX_SCF  200
      EPS_SCF   1.E-05
      SCF_GUESS  ATOMIC
      &MIXING  T
        METHOD  PULAY_MIXING
        ALPHA    0.5
        NBUFFER  5
      &END MIXING
      &PRINT
        &RESTART  OFF
        &END RESTART
      &END PRINT
      &OT ON
        PRECONDITIONER FULL_SINGLE_INVERSE
        MINIMIZER DIIS
      &END OT         
    &END SCF
    &QS
      EPS_DEFAULT  1.E-07
    &END QS
    &MGRID
      NGRIDS  4
      CUTOFF     800.
      REL_CUTOFF  40.
    &END MGRID
    &XC
      &XC_FUNCTIONAL  NO_SHORTCUT
        &PBE  T
        &END PBE
      &END XC_FUNCTIONAL
      &VDW_POTENTIAL
        POTENTIAL_TYPE  PAIR_POTENTIAL
        &PAIR_POTENTIAL
          R_CUTOFF     16.0
          TYPE  DFTD3
          PARAMETER_FILE_NAME dftd3.dat
          REFERENCE_FUNCTIONAL PBE
        &END PAIR_POTENTIAL
      &END VDW_POTENTIAL
    &END XC

    CHARGE 1
  &END DFT
  &SUBSYS
    &CELL
      SYMMETRY CUBIC
      ABC 12.000 12.000 12.000
    &END CELL
    &COORD
  O         1.2314881933        5.1236373505        5.8741466058
  H         0.6570911397        4.3424567753        5.9980491902
  H         0.9290565506        5.7185740631        6.6096099759
  O        10.3759802069       10.8788374192        4.4490296916
  H         9.9080713376       11.4972237520        3.8280067411
  H        10.3062329664       11.3899285001        5.3001612984
  O         9.0432998532        8.6171232197        9.5739964814
  H         8.4956466478        9.4391741371        9.5707584864
  H         9.0809971576        8.3221392618       10.5331334125
  O         1.9477569614        6.8497098359        3.2733319279
  H         2.6305723876        7.4588228721        2.8852956712
  H         2.0848845863        6.9132281689        4.2557455723
  O         8.7051758968        5.5073250809        1.2153836122
  H         7.9165818729        5.9523844068        1.6325455074
  H         9.4614871772        5.5662439162        1.9172333940
  O         1.0761516891        1.4414112725        4.9682104843
  H         0.2809378992        2.0343880946        4.8180722497
  H         0.8053851624        0.7000229448        5.5625158348
  O         7.6394763436        9.6413316044        1.6225517961
  H         6.9552561563       10.0370727219        0.9919393112
  H         8.0294334305        8.8939528569        1.0744196319
  O         3.0688915960       10.5284948025        9.2467847363
  H         3.5115144185        9.6780964070        9.0821211638
  H         3.8517216081       11.1739340147        9.3276485639
  O         7.0383485792       10.8496015492        4.1560548437
  H         7.3087547584        9.9650578465        3.8530955299
  H         6.8026266681       10.7646521238        5.1179828895
  O        11.1003251180        9.0600512382        1.6779355280
  H        10.6437393075        8.6139826984        2.4311228737
  H        10.6294090544        9.9609442021        1.6610402744
  O         5.0174645084       11.4782644801        2.5360473244
  H         4.3805428085       11.9063146776        3.1796286056
  H         5.7955761839       11.2543183917        3.1405916968
  O         4.0820110254        2.8617753418        2.7798507815
  H         4.1965107180        2.2817839073        3.5603963227
  H         4.5435566077        2.3419374915        2.0396490955
  O        10.6141920448       11.5496235152       10.6532032337
  H        10.3999201353       11.4370540863       -0.3803311534
  H        11.2489994524       12.2963531183       10.6292733175
  O         1.0407712175        1.4315147007       10.8007209595
  H         1.6481816390        0.9268296919       11.4358147923
  H         0.8696061829        2.2752463913       11.2996104242
  O         0.8075633443       10.8106660547        3.0475551229
  H         0.4604060672       10.1111068567        2.4229180487
  H         0.0248128846       10.9782676126        3.6400342991
  O         2.5486029221        0.2269213555        0.6008876690
  H         2.1566075844        0.8427128436        1.3253200449
  H         3.5148179161        0.3564399083        0.6184381101
  O         0.0294620324        2.6990533215        8.2310262833
  H         0.4945238913        3.4134980951        8.7887137978
  H         0.7348377502        2.0625121698        8.0036017065
  O        12.1992165391        7.3878528966        7.2530153797
  H        11.6482663144        7.5555446742        6.4487867932
  H        11.9632770698        8.1130733022        7.9036490275
  O         6.6430376885       10.9685743892        6.9380356632
  H         6.0128631785       10.4211549437        7.4428133146
  H         7.4541650375       10.9428063498        7.5073361009
  O         9.2238045567        7.9256228039        0.1531661236
  H        10.0592324393        8.2710415921        0.6062871684
  H         9.0569174592        6.9958637703        0.5085682125
  O         8.0916439440       11.1416164763        9.3375736489
  H         7.4072419772       11.8403259496        9.5239782035
  H         8.9425304627       11.5335376422        9.7137368760
  O         8.7921718760        1.1560176695        3.3780328886
  H         8.3645122372        1.8895436545        2.8484093734
  H         8.0051149659        0.7542546797        3.8469338573
  O         3.8841113831        8.5570648416        2.1415435908
  H         3.5230651479        8.9651975030        1.3107161943
  H         3.8076954356        9.2757762090        2.8307047585
  O         2.8310738224        2.2013416720        8.9090864933
  H         3.3771922337        1.4142155144        8.6664977441
  H         2.1797428384        1.8545095898        9.5965234565
  O         5.7330973944        4.8418193116       12.1377662902
  H         6.0721174981        5.5780620854       11.5875567932
  H         4.8916360321        4.5674747055       11.6566890935
  O         1.5601586358        1.9921472315        2.1906774020
  H         1.2650902046        1.5955124754        3.0424584538
  H         2.4095891692        2.4506784108        2.4417154345
  O         9.0709820982        8.3978164780        3.6107397656
  H         8.2438740505        8.5349340342        3.1094377848
  H         9.2817302373        9.2803133498        4.0122451518
  O         7.4351081224        2.9890136977        1.8289558651
  H         6.6869222750        3.5364735878        2.1555349490
  H         7.9361763141        3.6680427140        1.2968736981
  O         9.6005463045       11.3360653334        1.3940582930
  H         9.4000533839       12.0877640649        2.0298217532
  H         8.7810444497       10.7350699136        1.4797983658
  O         0.9018661395        4.7674740853        9.6687836651
  H         0.0572728117        5.1768758423       10.0163232664
  H         1.3949336949        4.5151170673       10.4930341853
  O         5.1736097573        0.1193629487        9.0128141466
  H         5.5213316050        0.1725972259        8.0913953490
  H         5.3647526676        1.0069670806        9.4941449549
  O         3.7088942561        0.5614220169        4.8299480885
  H         2.8128356892        1.0065993180        4.8652009915
  H         3.4465266642       -0.4270696590        4.8065884939
  O        11.4149170799        9.4206049708        8.7345583504
  H        10.4916677864        9.1203570549        9.0472511850
  H        11.7456762043        9.9017794958        9.5265372258
  O        10.4874524142        5.4609126385       10.6749724581
  H        10.2237971362        4.7043917674       11.2329940367
  H        10.4430819113        6.2110674170       11.3094657559
  O         2.4167078722        9.6572917818       -0.1146024913
  H         2.6505229221        9.9982703415       10.9781733868
  H         2.2138043752       10.5193478067        0.3526557071
  O         5.3713581396        1.4506350178        0.9977707259
  H         6.2706116949        1.8806920712        1.1340367958
  H         5.3705511916        0.5747783103        1.5647483575
  O         6.3674067843       10.7851932778       11.6305189247
  H         5.6201408240       10.1641108081       11.3599403409
  H         7.0379400906       10.5929189828       10.9116601128
  O         0.9750490285       11.3688663592        7.0040194063
  H         0.2555226710       10.8099679490        7.3824752990
  H         1.6649165774       11.2961240083        7.7093117414
  O         3.4580450901        4.2266081930       10.8124772521
  H         3.1717226828        5.0524666890       10.3529536298
  H         3.5768327144        3.5578829502       10.0916328302
  O        10.9627290569        3.0024732091        4.3354481299
  H        10.6593273237        3.4364508914        5.2083277698
  H        10.2432172310        2.3622537442        4.1152749750
  O         3.0628751070        7.0771388339       -0.4491976773
  H         2.6781617607        6.3694365725        0.1687711887
  H         2.4921753671        7.8644620293       11.6883710831
  O        10.5034956848        4.0337191850        6.7067730371
  H        11.0967906704        3.5079152029        7.3519159308
  H         9.9148741843        4.6039123131        7.2262184653
  O         6.3230448374        1.3803515370        4.7645850960
  H         6.2172340208        2.3430182020        4.5892943903
  H         5.3946790427        1.0668520993        4.9542719978
  O         2.2148246724        8.0445614448        5.7657182538
  H         1.4603312732        7.9070251813        6.4541477409
  H         2.9665684780        7.5570835427        6.1518021138
  O         2.9665586226       10.1476153362        4.3145982130
  H         2.6442954118        9.4919301740        4.9984158334
  H         2.1129202876       10.4035081688        3.8192428155
  O         6.2428884667        7.0734129881        1.7542426657
  H         5.5556936009        7.7971310814        1.8818992348
  H         5.7502493959        6.3555600069        1.2860088415
  O         7.8893073342        1.1025795845       11.3823438308
  H         8.6523073125        0.9042093742       11.9581032769
  H         7.1666632084        0.5103160247       11.7125080268
  O         1.7808809296        5.2266056985        1.0106526729
  H         2.4033474437        4.4830201411        1.1320204807
  H         1.6352789717        5.6026627166        1.9219398145
  O        11.5824320812        7.8488713892        4.5070493184
  H        11.4274341609        8.8114493398        4.4218231963
  H         0.4726844106        7.6974356784        4.0959886661
  O        10.7972850030        5.6609869475        2.7830614573
  H        10.8638011462        6.3896720467        3.4540484735
  H        11.0918646958        4.8389412662        3.2493911761
  O         5.1012790165        8.6277684530       10.7134659766
  H         5.8402940891        8.0470168393       10.4396376452
  H         4.4455806887        7.9718087826       11.1701816538
  O         9.6817171370        0.6240090580        6.4638489206
  H         8.9256104841        1.1399705976        6.1182218602
  H        10.1265167857        1.2399208582        7.0943829250
  O         5.4750541390        2.2457317336       10.4098205587
  H         6.3718323859        2.6035883623       10.5451110419
  H         5.2739637275        1.8692939071       11.3146288430
  O         8.5040000000        6.0980000000        5.3040000000
 Si         7.9670000000        4.7140000000        4.6350000000
 Si         8.3510000000        7.3010000000        6.4240000000
  O         8.0930000000        6.6130000000        7.8910000000
 Si         7.2820000000        5.6690000000        8.9590000000
  O         5.7280000000        6.2150000000        9.0620000000
 Si         4.3470000000        6.6920000000        8.3400000000
  O         3.7740000000        5.3910000000        7.4470000000
  O         4.9220000000        7.1410000000        4.7270000000
  O         4.6450000000        7.8780000000        7.2500000000
 Si         5.3950000000        8.2930000000        5.8530000000
 Si         3.9000000000        4.0520000000        6.5770000000
  O         7.2170000000        4.1350000000        8.3550000000
  O         7.7470000000        3.5660000000        5.7830000000
 Si         6.9170000000        3.1130000000        7.1210000000
  O         5.2930000000        3.2750000000        6.7250000000
  O         6.4410000000        5.0240000000        4.0060000000
 Si         5.0150000000        5.7530000000        3.9350000000
  O         3.9040000000        4.6430000000        4.8550000000
  O         7.0120000000        8.1760000000        6.0150000000
  H         4.9790000000        9.6100000000        5.3930000000
  H         4.3820000000        5.7470000000        2.6200000000
  H         2.7160000000        3.2020000000        6.5730000000
  H         7.1850000000        1.7260000000        7.4740000000
  H         7.9160000000        5.6770000000       10.2690000000
  H         3.3310000000        7.0930000000        9.3030000000
  H         9.5340000000        8.1480000000        6.4330000000
  H         8.8350000000        4.2430000000        3.5650000000
  H         3.1700000000        4.2970000000        4.3220000000
      SCALED  F
    &END COORD
    &KIND C
      BASIS_SET DZVP-GTH-q4
      POTENTIAL GTH-PBE-q4
    &END KIND
    &KIND H
      MASS 2.014101777
      BASIS_SET DZVP-GTH-q1
      POTENTIAL GTH-PBE-q1
    &END KIND
    &KIND O
      BASIS_SET DZVP-GTH-q6
      POTENTIAL GTH-PBE-q6
    &END KIND
    &KIND Si
      BASIS_SET DZVP-GTH-q4
      POTENTIAL GTH-PBE-q4
    &END KIND
  &END SUBSYS
&END FORCE_EVAL
&MOTION
  &CELL_OPT
    KEEP_SYMMETRY T
  &END CELL_OPT
  &MD
    ENSEMBLE NVT
      &THERMOSTAT
        TYPE CSVR
        &CSVR
          TIMECON 1000
        &END CSVR
      &END THERMOSTAT 
    STEPS 80000
    TEMPERATURE 300
    TIMESTEP 0.5
  &END MD
  &PRINT
    &RESTART
      FILENAME =${SYSNAME}.restart
      &EACH
        MD 1
      &END EACH
    &END RESTART
    &STRESS
      FILENAME =${SYSNAME}.stress
      &EACH
        MD 1
      &END EACH
    &END STRESS
    &VELOCITIES
      FILENAME =${SYSNAME}.vel
      &EACH
        MD 1
      &END EACH
    &END VELOCITIES
    &FORCES
      FILENAME =${SYSNAME}.frc
      &EACH
        MD 1
      &END EACH
    &END FORCES
    &CELL
      FILENAME =${SYSNAME}.cell
      &EACH
        MD 1
      &END EACH
    &END CELL
  &END PRINT
&END MOTION
