@SET SYSNAME poss

&GLOBAL
  PRINT_LEVEL LOW
  PROJECT_NAME poss
  RUN_TYPE MD
&END GLOBAL

&FORCE_EVAL
  METHOD  QS
  STRESS_TENSOR  DIAGONAL_ANALYTICAL
  &DFT
    BASIS_SET_FILE_NAME BASIS_SET
    BASIS_SET_FILE_NAME GTH_BASIS_SETS
    POTENTIAL_FILE_NAME GTH_POTENTIALS
    &SCF
      MAX_SCF  200
      EPS_SCF   1.E-05
      SCF_GUESS  ATOMIC
      &MIXING  T
        METHOD  PULAY_MIXING
        ALPHA    0.5
        NBUFFER  5
      &END MIXING
      &PRINT
        &RESTART  OFF
        &END RESTART
      &END PRINT
      &OT ON
        PRECONDITIONER FULL_SINGLE_INVERSE
        MINIMIZER DIIS
      &END OT         
    &END SCF
    &QS
      EPS_DEFAULT  1.E-07
    &END QS
    &MGRID
      NGRIDS  4
      CUTOFF     800.
      REL_CUTOFF  40.
    &END MGRID
    &XC
      &XC_FUNCTIONAL  NO_SHORTCUT
        &PBE  T
        &END PBE
      &END XC_FUNCTIONAL
      &VDW_POTENTIAL
        POTENTIAL_TYPE  PAIR_POTENTIAL
        &PAIR_POTENTIAL
          R_CUTOFF     16.0
          TYPE  DFTD3
          PARAMETER_FILE_NAME dftd3.dat
          REFERENCE_FUNCTIONAL PBE
        &END PAIR_POTENTIAL
      &END VDW_POTENTIAL
    &END XC

    CHARGE 1
  &END DFT
  &SUBSYS
    &CELL
      SYMMETRY CUBIC
      ABC  11.732  11.732  11.732
    &END CELL
    &COORD
  O         1.2703430845        5.6638591788        5.3819692573
  H         0.6943620268        5.0405345449        5.9511495079
  H         1.1081589053        6.5722091231        5.7605866060
  O        10.5564097034       10.2492225857        5.5519831303
  H        11.3413349846       10.8894533776        5.4604042729
  H         9.8533712140       10.9728427722        5.7482487330
  O         7.9955836207        8.8277626349        9.2549020612
  H         7.9966965917        9.7979462495        9.4390810455
  H         8.4506913157        8.3875605828       10.0233406393
  O         1.5829879787        7.6910619351        2.8830778660
  H         2.4858794087        8.0751080318        2.6716016383
  H         1.5843392593        6.8588904880        2.3582744557
  O         8.7219358852        6.4265188554        1.6170992106
  H         7.9419881677        6.8108793954        2.1028418026
  H         9.3051784022        6.0248445613        2.2897997547
  O         0.6481321459        0.7854223612        5.5901425450
  H         0.1035058716        1.5371655887        5.2655985258
  H         0.3841172657        0.6615202387        6.5371367969
  O         9.1104516498       11.1134064400        1.8158318155
  H         8.2886109256       10.8462779424        1.2526083454
  H         9.8388583556       10.8635397046        1.2008532986
  O         2.2454635293       10.7729637831        8.4793716879
  H         2.2668150035       10.3544376177        7.5451970006
  H         3.1776330250       11.1579106618        8.6099379538
  O         6.5673541887       10.6820189906        3.9869233213
  H         7.2551557594        9.9716363639        3.9753940598
  H         6.3259943183       10.8117965851        4.9353286827
  O        11.1647987212        9.9054632950        0.0832371211
  H        10.9773321816       10.7874001905       -0.4145585872
  H        12.1046364031        9.6725994364       -0.2393158905
  O         4.7018479847       10.6420177957        2.2165926030
  H         3.9074672846       10.7302515062        2.8306310979
  H         5.4754667291       10.5665736801        2.8780671716
  O         2.9045639102        2.8170699174        2.3848397379
  H         3.1661602319        2.4401902437        3.2742904411
  H         3.5621066627        2.4886196673        1.7307636081
  O        10.5554360889       12.1602948564       10.7998874945
  H        10.3248879906       12.9141539173       -0.3067494854
  H        11.2608891933       12.5380221572       10.1827161967
  O         1.1712691509        1.8873645004        9.7712726059
  H         1.7518068750        1.4619568792       10.4850060730
  H         0.9462848387        2.7853650298       10.1740364561
  O         0.2289658540       10.7698404942        2.6893789303
  H        -0.0039377618       10.3605044949        1.8199990975
  H        -0.3723580004       10.4387424292        3.3916911119
  O         2.6001791589        0.4301273933       -0.1181877700
  H         2.0027237523        0.7858480768        0.6081495743
  H         3.4827440792        0.8527035244        0.1430074145
  O        -1.6574375556        2.2567632055        7.7917810765
  H        -2.1367556397        2.6283619679        8.5977587944
  H        -1.0788479498        1.4949226998        8.1368401591
  O        11.9609190182        7.9457460758        6.7252610960
  H        11.4194140548        8.0399532861        5.8808619808
  H        11.3701398540        8.2582687182        7.4522720161
  O         6.6344948788       10.9416414374        6.8745046520
  H         6.9764204057       10.0320681772        7.1145722836
  H         7.4523195323       11.4735279021        6.7187238681
  O         9.6819195103        7.7283631291       -0.5975609139
  H        10.1993471143        8.5100177879       -0.2688927555
  H         9.4324696122        7.2546348535        0.2347437990
  O         8.2418860302       11.5286018848        9.7625120906
  H         7.6662736255       12.3299228080        9.8376771931
  H         9.1031829867       11.8330414151       10.1207241553
  O         8.6309017575        1.5261209448        3.4753807614
  H         7.6424609120        1.4246724489        3.4610962969
  H         8.8678746048        0.7695612476        2.8909150916
  O         4.1551336345        8.2162246840        1.8680841903
  H         3.7695016790        7.9586393459        0.9566758938
  H         4.4444090730        9.2134185379        1.8298782911
  O         3.2663829748        2.4934286958        8.3716210423
  H         3.8067368603        1.6605962891        8.2164826102
  H         2.4255474577        2.1537496684        8.8404823607
  O         5.5468417393        5.2178677478       11.5913100136
  H         5.3895677149        6.0476162706       11.0910406195
  H         4.7276662250        4.6380886961       11.3267707883
  O         0.7116730981        1.5229218857        1.6966187209
  H         0.4108635121        0.8014004424        2.2902183159
  H         1.4619420332        2.0225617310        2.1628546967
  O         8.9988642166        9.2609482969        3.6797655491
  H         9.0954850260        9.9448897592        2.9201572079
  H         9.5623509639        9.5610357644        4.4393402329
  O         7.7869364337        4.0110282870        0.4525585721
  H         6.8901181605        4.2316528624        0.1069057829
  H         8.0125331458        4.8820026656        0.8497270046
  O        10.2757266640       14.2872118927        0.5504404912
  H        11.0599073879       14.1337106157        1.1603755726
  H         9.4919181154       14.5157325559        1.0626954805
  O         0.8035304928        4.2833011577       10.6367074602
  H         0.3477297996        5.0878116874       10.1873668428
  H         0.7241314178        4.4816484415       11.6214122190
  O         4.7634510019        0.0414132508        8.6786165424
  H         5.4139139647       -0.2914706119        7.9666276742
  H         5.3152532442        0.5621035321        9.3370135859
  O         3.4202483586        1.3682068189        4.5557533503
  H         2.7120579921        1.4887644686        5.2248081058
  H         3.0889401586        0.4678317718        4.2053939096
  O        10.4732966959        9.2277331568        8.6144513427
  H         9.4898366308        9.0445227150        8.7766963884
  H        10.9376172926        9.1831536195        9.4949140723
  O        10.9281528387        5.8891276607        9.4473360381
  H        10.2811100169        5.1407455264        9.6119916993
  H        10.4874957626        6.6488666799        9.9525131534
  O         1.8599368861        9.6681355865       -0.9151676766
  H         2.0028921506        9.9233623043        9.8374282887
  H         2.2391190500       10.4693693123       -0.4595908594
  O         5.2634923893        1.2854895804        1.1170294842
  H         5.5740033466        1.7120332643        1.9865808804
  H         5.2809997779        0.3157087725        1.3524637603
  O         7.0351818924       10.6395397260       12.1567669755
  H         6.5192408308        9.8093064014       11.9943574209
  H         7.3068574319       10.9256101893       11.2241259216
  O        -0.1329113869       11.8121707144        8.0914946711
  H        -0.6481185832       10.9745929932        7.9593515724
  H         0.8296548344       11.6101844148        8.3332772126
  O         3.5444077390        3.7450929853       10.8234289603
  H         2.6641076396        4.2262663075       10.7827326355
  H         3.6842578485        3.4082815433        9.8794199922
  O        10.8686104882        3.0276131005        4.5825862645
  H        10.7032038425        3.5011733999        5.4409438596
  H        10.0828751117        2.4982892282        4.3189513341
  O         2.8882174171        7.2427186417       -0.2668297815
  H         2.3283653907        6.5982653767        0.2321592873
  H         2.3457376665        7.9559840689       11.0999967421
  O        11.3241844830        4.5013038123        7.0701634132
  H        10.8814854183        3.6928615505        7.4629041055
  H        11.0705802598        5.2595225001        7.6583781640
  O         5.9543334420        1.9911351081        3.5299069465
  H         5.9535565076        2.9963357695        3.6239595398
  H         5.1866081719        1.6626209630        4.0639109505
  O         2.1454107675        9.4519808109        6.1680602008
  H         1.3098325085        8.9076379230        6.3961790679
  H         2.8060148074        8.7783670327        6.4297896344
  O         2.5879836545       10.6558525250        3.8284449229
  H         2.4076488851       10.2893982617        4.7763321610
  H         1.7118037967       10.5839658311        3.3464841755
  O         5.8466214925        6.4772449054        2.2700310182
  H         5.1496946652        7.3289126303        2.0571336769
  H         5.8197477216        5.9574083049        1.4286196465
  O         9.4896432392        3.7054213144        9.9923957339
  H        10.1089288662        3.4427388732       10.7171122373
  H         8.7028814520        3.8483585662       10.5894405584
  O         1.2826439010        5.3009308488        1.4787594804
  H         1.9003766363        4.6241392887        1.9014086239
  H         0.4509643666        5.2503841396        2.0754425659
  O        11.0353065455        7.5798923807        4.2014494436
  H        10.3300601402        8.1456373605        3.7444622233
  H         0.2043760887        7.7991425103        3.7623156632
  O        10.8887929881        5.2472102613        3.0869871285
  H        10.9584261954        6.0591112834        3.6879561650
  H        10.9188639125        4.4014383856        3.5564173815
  O         5.6763351190        8.4427785073       10.8893081126
  H         6.2156134024        8.3966046708       10.0690387698
  H         4.7622729263        8.2218301439       10.6196029076
  O         8.9174708894        0.5766806527        6.0331573550
  H         8.7978631875        0.9506348867        5.1128171746
  H         9.3134641787        1.2508131712        6.6585294834
  O         6.3516076527        1.4767009024       10.4528369284
  H         6.4904289708        2.4347450767       10.2846864143
  H         6.0786689511        1.3718154628       11.4264718569
  O         8.0291836728        6.1825598511        5.0396731902
 Si         7.6283245150        4.6039034078        4.7077342108
 Si         8.0999786850        7.1253251814        6.4081873281
  O         8.1443846488        6.1408898509        7.7607091798
 Si         7.0309803680        5.5443779148        8.8495252206
  O         5.6095631613        6.4369898310        8.7294456241
 Si         4.0181464766        6.5149181159        8.1960263573
  O         3.4514212291        5.0074452195        7.8656529849
  O         5.0972127500        7.1244758239        4.4427134876
  O         4.0728052216        7.5600681914        6.8815319612
 Si         5.2174918905        8.0857952779        5.7668097189
 Si         3.5421063803        3.8929889845        6.6279051796
  O         6.6915326981        3.9335069704        8.5859825033
  O         7.6901141448        3.7013457752        6.0961822445
 Si         6.5714525283        3.0418492093        7.1557428978
  O         5.0505246524        3.2023954443        6.5493615251
  O         6.0841914904        4.5134756269        4.0180474634
 Si         4.8188815023        5.6247217294        3.7501427789
  O         3.6895566679        4.9525461022        5.1630065684
  O         6.7348861170        8.0863417491        6.4552206255
  H         4.9140677319        9.4928750104        5.4415736437
  H         3.7205011507        5.2949873224        2.8362746465
  H         2.3842046668        3.0744176193        6.2585131952
  H         6.9195988289        1.6540944164        7.5022853230
  H         7.4966709335        5.7466082131       10.2272633828
  H         3.1750517874        7.1459700477        9.2157907834
  H         9.2796279410        8.0030960910        6.3678648871
  H         8.5883483228        4.0702420770        3.7306039312
  H         2.7271310371        5.2991057000        5.0965113379
      SCALED  F
    &END COORD
    &KIND C
      BASIS_SET DZVP-GTH-q4
      POTENTIAL GTH-PBE-q4
    &END KIND
    &KIND H
      MASS 2.014101777
      BASIS_SET DZVP-GTH-q1
      POTENTIAL GTH-PBE-q1
    &END KIND
    &KIND O
      BASIS_SET DZVP-GTH-q6
      POTENTIAL GTH-PBE-q6
    &END KIND
    &KIND Si
      BASIS_SET DZVP-GTH-q4
      POTENTIAL GTH-PBE-q4
    &END KIND
  &END SUBSYS
&END FORCE_EVAL
&MOTION
  &MD
    ENSEMBLE NVT
      &THERMOSTAT
        TYPE CSVR
        &CSVR
          TIMECON 1000
        &END CSVR
      &END THERMOSTAT 
    STEPS 100000
    TEMPERATURE 300
    TIMESTEP 0.5
  &END MD
  &PRINT
    &RESTART
      FILENAME =${SYSNAME}.restart
      &EACH
        MD 1
      &END EACH
    &END RESTART
    &STRESS
      FILENAME =${SYSNAME}.stress
      &EACH
        MD 1
      &END EACH
    &END STRESS
    &VELOCITIES
      FILENAME =${SYSNAME}.vel
      &EACH
        MD 1
      &END EACH
    &END VELOCITIES
    &FORCES
      FILENAME =${SYSNAME}.frc
      &EACH
        MD 1
      &END EACH
    &END FORCES
    &CELL
      FILENAME =${SYSNAME}.cell
      &EACH
        MD 1
      &END EACH
    &END CELL
  &END PRINT
&END MOTION
