log run.log
shell rm -f log.lammps

variable simulation index bulk
variable minimization equal false

read_restart rst/${simulation}.min.rst
include potential.in

variable T_ext equal 300
variable P_ext equal 1

velocity all create ${T_ext} 42 rot yes mom yes dist gaussian
fix NPT all npt temp ${T_ext} ${T_ext} 1000.0 iso ${P_ext} ${P_ext} 1000.0

dump trj all netcdf 100 ${simulation}.nc type x y z vx vy vz

thermo_style one
thermo 100

restart 10000 rst/${simulation}.*.rst

timestep 1
run 500000 upto
