  &GLOBAL
   PRINT_LEVEL  MEDIUM
   PROJECT_NAME NO2MIL53_supercell
   RUN_TYPE  GEO_OPT
 &END GLOBAL
 &MOTION
   &GEO_OPT
     TYPE  MINIMIZATION
     OPTIMIZER  CG
     MAX_ITER  200
     MAX_DR     1.0000000000000000E-03
     MAX_FORCE     1.0000000000000000E-03
     RMS_DR     1.0000000000000000E-03
     RMS_FORCE     1.0000000000000000E-03
     STEP_START_VAL  121
   &END GEO_OPT
 &END MOTION
 &FORCE_EVAL
   METHOD  QS
   STRESS_TENSOR  DIAGONAL_ANALYTICAL
   &DFT
     BASIS_SET_FILE_NAME ../data/GTH_BASIS_SETS
     POTENTIAL_FILE_NAME ../data/GTH_POTENTIALS
     &SCF
       MAX_SCF  200
       EPS_SCF     1.0000000000000001E-05
       SCF_GUESS  ATOMIC
       &OT  T
         MINIMIZER  DIIS
         PRECONDITIONER  FULL_SINGLE_INVERSE
       &END OT
       &MIXING  T
         METHOD  PULAY_MIXING
         ALPHA     5.0000000000000000E-01
         NBUFFER  5
       &END MIXING
       &PRINT
         &RESTART  OFF
         &END RESTART
       &END PRINT
     &END SCF
     &QS
       EPS_DEFAULT     1.0000000000000001E-09
     &END QS
     &MGRID
       NGRIDS  4
       CUTOFF     9.0000000000000000E+02
       REL_CUTOFF     4.0000000000000000E+01
     &END MGRID
     &XC
       DENSITY_CUTOFF     1.0000000000000000E-10
       GRADIENT_CUTOFF     1.0000000000000000E-10
       TAU_CUTOFF     1.0000000000000000E-10
       &XC_FUNCTIONAL  NO_SHORTCUT
         &PBE  T
         &END PBE
       &END XC_FUNCTIONAL
       &VDW_POTENTIAL
         POTENTIAL_TYPE  PAIR_POTENTIAL
         &PAIR_POTENTIAL
           R_CUTOFF     1.0000000000000002E+01
           TYPE  DFTD3
           PARAMETER_FILE_NAME ../data/dftd3.dat
           REFERENCE_FUNCTIONAL PBE
         &END PAIR_POTENTIAL
       &END VDW_POTENTIAL
     &END XC
   &END DFT
   &SUBSYS
     &CELL
       ABC 13.298 16.382 13.320
       MULTIPLE_UNIT_CELL  1 1 1
     &END CELL
     &COORD
     SCALED T
 O  0.006496    0.248773    0.678594 
 O  0.712729    0.884241    0.007568 
 O  0.287271    0.384241    0.992432 
 O  0.993504    0.748773    0.321406 
 O  0.787271    0.384241    0.992432 
 O  0.212729    0.884241    0.007568 
 O  0.506496    0.248773    0.678594 
 O  0.493504    0.748773    0.321406 
 H  0.507791    0.282612    0.612300 
 H  0.757791    0.282612    0.887700 
 C  0.745116    0.640832    0.377101 
 H  0.257791    0.282612    0.887700 
 H  0.742209    0.782612    0.112300 
 C  0.245116    0.640832    0.377101 
 H  0.242209    0.782612    0.112300 
 H  0.007791    0.282612    0.612300 
 C  0.754884    0.140832    0.622899 
 H  0.992209    0.782612    0.387700 
 H  0.492209    0.782612    0.387700 
 H  0.900305    0.552452    0.421837 
 H  0.400305    0.552452    0.421837 
 H  0.650305    0.552452    0.078163 
 H  0.099695    0.052452    0.578163 
 H  0.092557    0.568259    0.474688 
 H  0.349695    0.052452    0.921837 
 H  0.849695    0.052452    0.921837 
 H  0.599695    0.052452    0.578163 
 H  0.592557    0.568259    0.474688 
 H  0.150305    0.552452    0.078163 
 H  0.342557    0.568259    0.025312 
 H  0.151186    0.426324    0.975329 
 H  0.842557    0.568259    0.025312 
 H  0.907443    0.068259    0.525312 
 H  0.407443    0.068259    0.525312 
 H  0.657443    0.068259    0.974688 
 H  0.157443    0.068259    0.974688 
 N  0.570149    0.435144    0.573440 
 H  0.401186    0.426324    0.524671 
 O  0.537271    0.384241    0.507568 
 N  0.820149    0.435144    0.926560 
 N  0.070149    0.435144    0.573440 
 N  0.320149    0.435144    0.926560 
 H  0.651186    0.426324    0.975329 
 H  0.901186    0.426324    0.524671 
 O  0.962729    0.884241    0.492432 
 H  0.348814    0.926324    0.024671 
 O  0.462729    0.884241    0.492432 
 H  0.598814    0.926324    0.475329 
 N  0.679851    0.935144    0.073440 
 H  0.848814    0.926324    0.024671 
 N  0.179851    0.935144    0.073440 
 O  0.037271    0.384241    0.507568 
 N  0.429851    0.935144    0.426560 
 H  0.098814    0.926324    0.475329 
 N  0.929851    0.935144    0.426560 
 C  0.586079    0.967959    0.040440 
 C  0.834760    0.458923    0.514083 
 C  0.997154    0.568178    0.056594 
 C  0.583912    0.528296    0.042564 
 C  0.334760    0.458923    0.514083 
 C  0.002846    0.068178    0.943406 
 C  0.663921    0.467959    0.540440 
 C  0.333912    0.528296    0.457436 
 C  0.502846    0.068178    0.943406 
 C  0.165240    0.958923    0.485917 
 C  0.916088    0.028296    0.957436 
 C  0.336079    0.967959    0.459560 
 C  0.497154    0.568178    0.056594 
 C  0.086079    0.967959    0.040440 
 C  0.163921    0.467959    0.540440 
 C  0.166088    0.028296    0.542564 
 C  0.666088    0.028296    0.542564 
 C  0.247154    0.568178    0.443406 
 C  0.083912    0.528296    0.042564 
 C  0.413921    0.467959    0.959560 
 C  0.913921    0.467959    0.959560 
 C  0.836079    0.967959    0.459560 
 C  0.416088    0.028296    0.957436 
 C  0.665240    0.958923    0.485917 
 C  0.833912    0.528296    0.457436 
 C  0.995116    0.640832    0.122899 
 C  0.000197    0.926872    0.057058 
 C  0.003196    0.353263    0.878634 
 C  0.996804    0.853263    0.121366 
 C  0.999803    0.426872    0.942942 
 C  0.752846    0.068178    0.556594 
 C  0.753196    0.353263    0.621366 
 C  0.500197    0.926872    0.057058 
 C  0.503196    0.353263    0.878634 
 C  0.253196    0.353263    0.621366 
 C  0.252846    0.068178    0.556594 
 C  0.004884    0.140832    0.877101 
 C  0.250197    0.926872    0.442942 
 C  0.495116    0.640832    0.122899 
 C  0.249803    0.426872    0.557058 
 C  0.746804    0.853263    0.378634 
 C  0.750197    0.926872    0.442942 
 C  0.749803    0.426872    0.557058 
 C  0.496804    0.853263    0.121366 
 C  0.246804    0.853263    0.378634 
 C  0.254884    0.140832    0.622899 
 C  0.499803    0.426872    0.942942 
 C  0.747154    0.568178    0.443406 
 C  0.504884    0.140832    0.877101 
 O  0.423142    0.169414    0.850290 
 O  0.222675    0.961543    0.159088 
 O  0.972675    0.961543    0.340912 
 O  0.076858    0.669414    0.149710 
 O  0.923142    0.169414    0.850290 
 O  0.576858    0.669414    0.149710 
 O  0.472675    0.961543    0.340912 
 O  0.277325    0.461543    0.840912 
 O  0.722675    0.961543    0.159088 
 O  0.027325    0.461543    0.659088 
 O  0.673142    0.169414    0.649710 
 O  0.527325    0.461543    0.659088 
 O  0.777325    0.461543    0.840912 
 O  0.756496    0.248773    0.821406 
 O  0.828220    0.827100    0.345218 
 O  0.163725    0.823348    0.362286 
 O  0.586275    0.323348    0.862286 
 O  0.173142    0.169414    0.649710 
 O  0.161448    0.667204    0.352245 
 O  0.911448    0.667204    0.147755 
 O  0.328220    0.827100    0.345218 
 O  0.743504    0.748773    0.178594 
 O  0.088552    0.167204    0.852245 
 O  0.588552    0.167204    0.852245 
 O  0.836275    0.323348    0.637714 
 O  0.411448    0.667204    0.147755 
 O  0.421780    0.327100    0.845218 
 O  0.326858    0.669414    0.350290 
 O  0.661448    0.667204    0.352245 
 O  0.338552    0.167204    0.647755 
 O  0.256496    0.248773    0.821406 
 O  0.243504    0.748773    0.178594 
 O  0.838552    0.167204    0.647755 
 O  0.671780    0.327100    0.654782 
 O  0.336275    0.323348    0.637714 
 O  0.086275    0.323348    0.862286 
 O  0.921780    0.327100    0.845218 
 O  0.078220    0.827100    0.154782 
 O  0.663725    0.823348    0.362286 
 O  0.413725    0.823348    0.137714 
 O  0.578220    0.827100    0.154782 
 O  0.913725    0.823348    0.137714 
 O  0.826858    0.669414    0.350290 
 O  0.171780    0.327100    0.654782 
 C  0.410831    0.537828    0.013767 
 C  0.089169    0.037828    0.986233 
 C  0.084760    0.458923    0.985917 
Al  0.119607    0.746836    0.253656 
 C  0.589169    0.037828    0.986233 
 C  0.339169    0.037828    0.513767 
 C  0.910831    0.537828    0.013767 
 C  0.915240    0.958923    0.014083 
Al  0.619607    0.746836    0.253656 
 C  0.660831    0.537828    0.486233 
 C  0.415240    0.958923    0.014083 
Al  0.130393    0.246836    0.753656 
 C  0.839169    0.037828    0.513767 
Al  0.369607    0.746836    0.246344 
 C  0.160831    0.537828    0.486233 
Al  0.869607    0.746836    0.246344 
Al  0.630393    0.246836    0.753656 
 C  0.584760    0.458923    0.985917 
Al  0.380393    0.246836    0.746344 
Al  0.880393    0.246836    0.746344 
     &END COORD
     &KIND Al
       BASIS_SET DZVP-GTH-q3
       ELEMENT Al
       POTENTIAL GTH-PBE-q3
       &POTENTIAL
 2 1
  0.4500000000000000E+00 1 -0.7554761260000000E+01
 2
  0.4874352900000000E+00 2  0.6959938320000000E+01 -0.1888835840000000E+01
  0.2438476590000000E+01
  0.5621894900000000E+00 1  0.1865298570000000E+01
         # Potential name:  GTH-PBE-Q3  for symbol:  AL
         # Potential read from the potential filename: ../data/GTH_POTENTIALS
       &END POTENTIAL
     &END KIND
     &KIND O
       BASIS_SET DZVP-GTH-q6
       ELEMENT O
       POTENTIAL GTH-PBE-q6
       &POTENTIAL
 2 4
  0.2445543000000000E+00 2 -0.1666721480000000E+02  0.2487311320000000E+01
 2
  0.2209559200000000E+00 1  0.1833745811000000E+02
  0.2113324700000000E+00 0
         # Potential name:  GTH-PBE-Q6  for symbol:  O
         # Potential read from the potential filename: ../data/GTH_POTENTIALS
       &END POTENTIAL
     &END KIND
     &KIND C
       BASIS_SET DZVP-GTH-q4
       ELEMENT C
       POTENTIAL GTH-PBE-q4
       &POTENTIAL
 2 2
  0.3384712400000000E+00 2 -0.8803673979999999E+01  0.1339210850000000E+01
 2
  0.3025757500000000E+00 1  0.9622486650000001E+01
  0.2915069400000000E+00 0
         # Potential name:  GTH-PBE-Q4  for symbol:  C
         # Potential read from the potential filename: ../data/GTH_POTENTIALS
       &END POTENTIAL
     &END KIND
     &KIND H
       BASIS_SET DZVP-GTH-q1
       ELEMENT H
       POTENTIAL GTH-PBE-q1
       &POTENTIAL
 1
  0.2000000000000000E+00 2 -0.4178900440000000E+01  0.7244633100000000E+00
 0
         # Potential name:  GTH-PBE-Q1  for symbol:  H
         # Potential read from the potential filename: ../data/GTH_POTENTIALS
       &END POTENTIAL
     &END KIND
     &KIND N
       BASIS_SET DZVP-GTH-q5
       ELEMENT N
       POTENTIAL GTH-PBE-q5
       &POTENTIAL
 2 3
  0.2837905100000000E+00 2 -0.1241522559000000E+02  0.1868095920000000E+01
 2
  0.2554050000000000E+00 1  0.1363026257000000E+02
  0.2454945300000000E+00 0
         # Potential name:  GTH-PBE-Q5  for symbol:  N
         # Potential read from the potential filename: ../data/GTH_POTENTIALS
       &END POTENTIAL
     &END KIND
     &TOPOLOGY
       NUMBER_OF_ATOMS  168
       MULTIPLE_UNIT_CELL  1 1 1
     &END TOPOLOGY
   &END SUBSYS
 &END FORCE_EVAL
