 &GLOBAL
   PRINT_LEVEL  MEDIUM
   PROJECT_NAME NO2MIL53_singleunitcell
   RUN_TYPE  GEO_OPT
 &END GLOBAL
 &MOTION
   &GEO_OPT
     TYPE  MINIMIZATION
     OPTIMIZER  CG
     MAX_ITER  200
     MAX_DR     1.0000000000000000E-03
     MAX_FORCE     1.0000000000000000E-03
     RMS_DR     1.0000000000000000E-03
     RMS_FORCE     1.0000000000000000E-03
     STEP_START_VAL  162
   &END GEO_OPT
 &END MOTION
 &FORCE_EVAL
   METHOD  QS
   &DFT
     BASIS_SET_FILE_NAME ../data/GTH_BASIS_SETS
     POTENTIAL_FILE_NAME ../data/GTH_POTENTIALS
     &SCF
       MAX_SCF  200
       EPS_SCF     9.9999999999999995E-08
       SCF_GUESS  ATOMIC
       &OT  T
         MINIMIZER  DIIS
         PRECONDITIONER  FULL_SINGLE_INVERSE
       &END OT
       &MIXING  T
         METHOD  PULAY_MIXING
         ALPHA     5.0000000000000000E-01
         NBUFFER  5
       &END MIXING
       &PRINT
         &RESTART  OFF
         &END RESTART
       &END PRINT
     &END SCF
     &QS
       EPS_DEFAULT     1.0000000000000000E-10
     &END QS
     &MGRID
       NGRIDS  4
       CUTOFF     9.0000000000000000E+02
       REL_CUTOFF     4.0000000000000000E+01
     &END MGRID
     &XC
       DENSITY_CUTOFF     1.0000000000000000E-10
       GRADIENT_CUTOFF     1.0000000000000000E-10
       TAU_CUTOFF     1.0000000000000000E-10
       &XC_FUNCTIONAL  NO_SHORTCUT
         &PBE  T
         &END PBE
       &END XC_FUNCTIONAL
       &VDW_POTENTIAL
         POTENTIAL_TYPE  PAIR_POTENTIAL
         &PAIR_POTENTIAL
           R_CUTOFF     1.0000000000000002E+01
           TYPE  DFTD3
           PARAMETER_FILE_NAME ../data/dftd3.dat
           REFERENCE_FUNCTIONAL PBE
         &END PAIR_POTENTIAL
       &END VDW_POTENTIAL
     &END XC
   &END DFT
   &SUBSYS
     &CELL
       ABC 6.6490 16.382 13.320
       MULTIPLE_UNIT_CELL 1 1 1
     &END CELL
     &COORD
     SCALED T
 O  0.822895    0.667204    0.147755
 O  0.177105    0.167204    0.852245
 O  0.322895    0.667204    0.352245
 O  0.677105    0.167204    0.647755
 O  0.054650    0.461543    0.659088
 O  0.945350    0.961543    0.340912
 O  0.554650    0.461543    0.840912
 O  0.445350    0.961543    0.159088
 O  0.327449    0.823348    0.362286
 O  0.672551    0.323348    0.637714
 O  0.827449    0.823348    0.137714
 O  0.172551    0.323348    0.862286
 O  0.843559    0.327100    0.845218
 O  0.156441    0.827100    0.154782
 O  0.343559    0.327100    0.654782
 O  0.656441    0.827100    0.345218
 O  0.987007    0.748773    0.321406
 O  0.012993    0.248773    0.678594
 O  0.487007    0.748773    0.178594
 O  0.512993    0.248773    0.821406
 O  0.653716    0.669414    0.350290
 O  0.346284    0.169414    0.649710
 O  0.153716    0.669414    0.149710
 O  0.846284    0.169414    0.850290
 C  0.832177    0.028296    0.957436
 C  0.167823    0.528296    0.042564
 C  0.332177    0.028296    0.542564
 C  0.667823    0.528296    0.457436
 C  0.672157    0.967959    0.459560
 C  0.327843    0.467959    0.540440
 C  0.172157    0.967959    0.040440
 C  0.827843    0.467959    0.959560
 H  0.699390    0.052452    0.921837
 H  0.300610    0.552452    0.078163
 H  0.199390    0.052452    0.578163
 H  0.800610    0.552452    0.421837
 C  0.169519    0.458923    0.985917
 C  0.830481    0.958923    0.014083
 C  0.669519    0.458923    0.514083
 C  0.330481    0.958923    0.485917
 C  0.994309    0.568178    0.056594
 C  0.005691    0.068178    0.943406
 C  0.494309    0.568178    0.443406
 C  0.505691    0.068178    0.556594
 H  0.185115    0.568259    0.474688
 H  0.814885    0.068259    0.525312
 H  0.685115    0.568259    0.025312
 H  0.314885    0.068259    0.974688
 C  0.009768    0.140832    0.877101
 C  0.990232    0.640832    0.122899
 C  0.509768    0.140832    0.622899
 C  0.490232    0.640832    0.377101
 C  0.006392    0.353263    0.878634
 C  0.993608    0.853263    0.121366
 C  0.506392    0.353263    0.621366
 C  0.493608    0.853263    0.378634
 H  0.302371    0.426324    0.975329
 H  0.697629    0.926324    0.024671
 H  0.802371    0.426324    0.524671
 H  0.197629    0.926324    0.475329
 C  0.321662    0.537828    0.486233
 C  0.678338    0.037828    0.513767
 C  0.821662    0.537828    0.013767
 C  0.178338    0.037828    0.986233
 O  0.074543    0.384241    0.507568
 O  0.925457    0.884241    0.492432
 O  0.574543    0.384241    0.992432
 O  0.425457    0.884241    0.007568
 C  0.000393    0.926872    0.057058
 C  0.999607    0.426872    0.942942
 C  0.500393    0.926872    0.442942
 C  0.499607    0.426872    0.557058
Al  0.260786    0.246836    0.753656
Al  0.739214    0.746836    0.246344
Al  0.760786    0.246836    0.746344
Al  0.239214    0.746836    0.253656
 N  0.140298    0.435144    0.573440
 N  0.859702    0.935144    0.426560
 N  0.640298    0.435144    0.926560
 N  0.359702    0.935144    0.073440
 H  0.484419    0.782612    0.112300
 H  0.515581    0.282612    0.887700
 H  0.984419    0.782612    0.387700
 H  0.015581    0.282612    0.612300
     &END COORD
     &KIND Al
       BASIS_SET DZVP-GTH-q3
       ELEMENT Al
       POTENTIAL GTH-PBE-q3
       &POTENTIAL
 2 1
  0.4500000000000000E+00 1 -0.7554761260000000E+01
 2
  0.4874352900000000E+00 2  0.6959938320000000E+01 -0.1888835840000000E+01
  0.2438476590000000E+01
  0.5621894900000000E+00 1  0.1865298570000000E+01
         # Potential name:  GTH-PBE-Q3  for symbol:  AL
         # Potential read from the potential filename: ../data/GTH_POTENTIALS
       &END POTENTIAL
     &END KIND
     &KIND O
       BASIS_SET DZVP-GTH-q6
       ELEMENT O
       POTENTIAL GTH-PBE-q6
       &POTENTIAL
 2 4
  0.2445543000000000E+00 2 -0.1666721480000000E+02  0.2487311320000000E+01
 2
  0.2209559200000000E+00 1  0.1833745811000000E+02
  0.2113324700000000E+00 0
         # Potential name:  GTH-PBE-Q6  for symbol:  O
         # Potential read from the potential filename: ../data/GTH_POTENTIALS
       &END POTENTIAL
     &END KIND
     &KIND N
       BASIS_SET DZVP-GTH-q5
       ELEMENT N
       POTENTIAL GTH-PBE-q5
       &POTENTIAL
 2 3
  0.2837905100000000E+00 2 -0.1241522559000000E+02  0.1868095920000000E+01
 2
  0.2554050000000000E+00 1  0.1363026257000000E+02
  0.2454945300000000E+00 0
         # Potential name:  GTH-PBE-Q5  for symbol:  N
         # Potential read from the potential filename: ../data/GTH_POTENTIALS
       &END POTENTIAL
     &END KIND
     &KIND C
       BASIS_SET DZVP-GTH-q4
       ELEMENT C
       POTENTIAL GTH-PBE-q4
       &POTENTIAL
 2 2
  0.3384712400000000E+00 2 -0.8803673979999999E+01  0.1339210850000000E+01
 2
  0.3025757500000000E+00 1  0.9622486650000001E+01
  0.2915069400000000E+00 0
         # Potential name:  GTH-PBE-Q4  for symbol:  C
         # Potential read from the potential filename: ../data/GTH_POTENTIALS
       &END POTENTIAL
     &END KIND
     &KIND H
       BASIS_SET DZVP-GTH-q1
       ELEMENT H
       POTENTIAL GTH-PBE-q1
       &POTENTIAL
 1
  0.2000000000000000E+00 2 -0.4178900440000000E+01  0.7244633100000000E+00
 0
         # Potential name:  GTH-PBE-Q1  for symbol:  H
         # Potential read from the potential filename: ../data/GTH_POTENTIALS
       &END POTENTIAL
     &END KIND
     &TOPOLOGY
       NUMBER_OF_ATOMS  84
       MULTIPLE_UNIT_CELL  1 1 1
     &END TOPOLOGY
   &END SUBSYS
 &END FORCE_EVAL
