 @SET SYSNAME ZIF8_300

 &GLOBAL
   PRINT_LEVEL MEDIUM 
   PROJECT_NAME ZIF8
   RUN_TYPE MD 
 &END GLOBAL
 &FORCE_EVAL
   METHOD  QS
   STRESS_TENSOR  DIAGONAL_ANALYTICAL
   &DFT
     BASIS_SET_FILE_NAME ../data/BASIS_SET
     BASIS_SET_FILE_NAME ../data/BASIS_MOLOPT
     POTENTIAL_FILE_NAME ../data/POTENTIAL
     &SCF
       MAX_SCF  200
       EPS_SCF     1.0000000000000001E-05
       SCF_GUESS  ATOMIC
       &MIXING  T
         METHOD  PULAY_MIXING
         ALPHA     5.0000000000000000E-01
         NBUFFER  5
       &END MIXING
       &PRINT
         &RESTART  OFF
         &END RESTART
       &END PRINT
       &OT ON
         PRECONDITIONER FULL_SINGLE_INVERSE
         MINIMIZER DIIS
       &END OT         
     &END SCF
     &QS
       EPS_DEFAULT     9.9999999999999995E-08
     &END QS
     &MGRID
       NGRIDS  4
       CUTOFF     6.0000000000000000E+02
       REL_CUTOFF     4.0000000000000000E+01
     &END MGRID
     &XC
       DENSITY_CUTOFF     1.0000000000000000E-10
       GRADIENT_CUTOFF     1.0000000000000000E-10
       TAU_CUTOFF     1.0000000000000000E-10
       &XC_FUNCTIONAL  NO_SHORTCUT
         &PBE  T
         &END PBE
       &END XC_FUNCTIONAL
       &VDW_POTENTIAL
         POTENTIAL_TYPE  PAIR_POTENTIAL
         &PAIR_POTENTIAL
           R_CUTOFF     1.6000000000000000E+01
           TYPE  DFTD3
           PARAMETER_FILE_NAME ../data/dftd3.dat
           REFERENCE_FUNCTIONAL PBE
         &END PAIR_POTENTIAL
       &END VDW_POTENTIAL
     &END XC
   &END DFT
   &SUBSYS
     &CELL
       A     1.6993200000000005E+01    0.0000000000000000E+00    0.0000000000000000E+00
       B     0.0000000000000000E+00    1.6993200000000005E+01    0.0000000000000000E+00
       C     0.0000000000000000E+00    0.0000000000000000E+00    1.6993200000000005E+01
       MULTIPLE_UNIT_CELL  1 1 1
     &END CELL
     &COORD
C    3.7995301856144970E-01    6.1418312934713786E-03    6.2392452856396496E-01
C    6.2401782694374952E-01    9.9817438639185929E-01    6.2406549448109372E-01
C    6.2395782548805767E-01    6.1904170747178102E-03    3.7965602422879224E-01
C    3.7951463837434984E-01    9.9769762118643512E-01    3.7928807290156114E-01
C    6.2393644985707586E-01    3.8004055356587590E-01    6.1254140623992438E-03
C    6.2364486999127267E-01    6.2396235460335470E-01    9.9795036766025469E-01
C    3.7914134226329704E-01    6.2414907389618757E-01    5.9720738221370195E-03
C    3.7922812878295764E-01    3.7931979611448741E-01    9.9763143096307771E-01
C    6.1598447237706661E-03    6.2395734764162170E-01    3.7997709757352388E-01
C    9.9823812068594930E-01    6.2403907916002999E-01    6.2401464193184730E-01
C    6.1808992361293376E-03    3.7974908508285682E-01    6.2398598568492813E-01
C    9.9755209559542346E-01    3.7920606594370676E-01    3.7944109506282814E-01
C    8.7971051638164810E-01    5.0641487788404749E-01    1.2413980020363782E-01
C    1.2392822986365390E-01    4.9810844150245837E-01    1.2415703026095264E-01
C    1.2380872609904657E-01    5.0593920825002814E-01    8.7992727435326856E-01
C    8.7937935362127517E-01    4.9774438615217359E-01    8.7942141433377163E-01
C    1.2407863239655106E-01    8.7986777518091952E-01    5.0617569531646811E-01
C    1.2409116338929439E-01    1.2389015601303356E-01    4.9824324331016784E-01
C    8.7980626043416932E-01    1.2382985235390630E-01    5.0616550981580311E-01
C    8.7931016617380853E-01    8.7935244609090946E-01    4.9758166628688227E-01
C    5.0622152966904366E-01    1.2413268744781847E-01    8.7977053877626155E-01
C    4.9828576445693795E-01    1.2406810252228120E-01    1.2384924255757571E-01
C    5.0562890437287833E-01    8.7966667654224062E-01    1.2390111085548350E-01
C    4.9705834486983896E-01    8.7946482188514297E-01    8.7937706542700189E-01
C    3.7382661074577384E-01    8.9363466387245627E-01    6.8779851060182828E-01
C    6.3027069105838107E-01    1.1054151679507447E-01    6.8812336937166574E-01
C    6.3013134629347800E-01    8.9377624851037063E-01    3.1563969513792950E-01
C    3.7312753452719311E-01    1.1006165496655766E-01    3.1520142084332486E-01
C    6.8781320777456900E-01    3.7393979078250111E-01    8.9364025046438300E-01
C    6.8773032488262120E-01    6.3035119774196946E-01    1.1028205125098904E-01
C    3.1516317033710611E-01    6.3010138464463672E-01    8.9354346349676683E-01
C    3.1515448887376479E-01    3.7289705382318622E-01    1.0998876215792128E-01
C    8.9368352653686045E-01    6.8785102539878784E-01    3.7384272599873525E-01
C    1.1056670309673004E-01    6.8814253044927387E-01    6.3032199703251368E-01
C    8.9379359591912499E-01    3.1568888023493641E-01    6.3017279997370956E-01
C    1.0995030348685728E-01    3.1517722900029665E-01    3.7310961828043659E-01
C    8.9377498200480210E-01    3.7358521627661717E-01    6.8799888055175373E-01
C    1.1055643537213292E-01    6.3024811676719816E-01    6.8816158232940261E-01
C    8.9370701360766303E-01    6.2995651333069824E-01    3.1601582352823610E-01
C    1.0984661218035154E-01    3.7301808969327233E-01    3.1522978410678026E-01
C    3.7276130471285618E-01    6.8822783054250236E-01    8.9363021343453308E-01
C    6.2968357380794060E-01    6.8803246127310813E-01    1.1035009429700764E-01
C    6.2998084501089580E-01    3.1604924406113050E-01    8.9369025153113257E-01
C    3.7316610588934201E-01    3.1518407383535751E-01    1.0998023699586158E-01
C    6.8799474493973778E-01    8.9380022267206460E-01    3.7350078343120197E-01
C    6.8807051025372934E-01    1.1054390914626716E-01    6.3018973839464587E-01
C    3.1599246559086669E-01    8.9370800349327173E-01    6.2990969956019227E-01
C    3.1523543607760851E-01    1.0993697857182369E-01    3.7303545241139457E-01
C    8.7346168933760227E-01    3.9389425409093554E-01    1.8797391752908141E-01
C    1.3023854418287556E-01    6.1051189265724315E-01    1.8816297776386293E-01
C    1.2985765644350897E-01    3.9355641913673400E-01    8.1586270010973605E-01
C    8.7310443797331017E-01    6.1002404536261456E-01    8.1519254565236055E-01
C    1.8799997551732353E-01    8.7362733673030624E-01    3.9372382261324584E-01
C    1.8816047696030430E-01    1.3017609221764539E-01    6.1059417688350626E-01
C    8.1587272123484034E-01    1.2998500534515914E-01    3.9370278896923011E-01
C    8.1516897067712746E-01    8.7306540187874548E-01    6.0992043890531378E-01
C    3.9377650015954874E-01    1.8807659092935908E-01    8.7357115317789269E-01
C    6.1067706734639171E-01    1.8807452891537321E-01    1.3016088114634303E-01
C    3.9305240318120016E-01    8.1596884051164431E-01    1.3021002976285398E-01
C    6.0930216028509410E-01    8.1511501936622788E-01    8.7334672601632435E-01
C    3.9326082014065805E-01    8.7394688484603300E-01    1.8796432669364424E-01
C    6.1059645619707714E-01    1.3017956480173101E-01    1.8800301105756242E-01
C    3.9380321739777491E-01    1.3017114609085276E-01    8.1575372570331006E-01
C    6.0952270637201766E-01    8.7294943296141092E-01    8.1546488042853404E-01
C    8.7376498119159485E-01    1.8781628654957899E-01    3.9374089090179576E-01
C    1.3028258932129122E-01    1.8803421681703453E-01    6.1055848207982377E-01
C    1.3009965159461168E-01    8.1580237862076321E-01    3.9378811533294200E-01
C    8.7304421195451054E-01    8.1521681148472069E-01    6.0990988609073848E-01
C    1.8764741939483132E-01    3.9343319080945155E-01    8.7379968840526434E-01
C    1.8808036027062738E-01    6.1041259461447916E-01    1.3027207538783761E-01
C    8.1558623783444528E-01    3.9406947867731962E-01    1.3012728545958688E-01
C    8.1529280201800070E-01    6.1009859724678350E-01    8.7310845395618020E-01
C    4.0818876434348672E-01    8.5098058343729813E-02    5.9575574762701289E-01
C    5.9557688146575372E-01    9.1938454704812422E-01    5.9567570284526905E-01
C    5.9582950552303171E-01    8.5195497867209313E-02    4.0779772361662658E-01
C    4.0784121838371362E-01    9.1878926170036435E-01    4.0749988033640716E-01
C    5.9565156976394062E-01    4.0819699277097532E-01    8.5071350665955212E-02
C    5.9513402621098044E-01    5.9547636481272526E-01    9.1921699133936896E-01
C    4.0730576643627481E-01    5.9600871022667745E-01    8.4957566419903513E-02
C    4.0735573563283772E-01    4.0766292424034178E-01    9.1869829927135171E-01
C    8.5123124868815944E-02    5.9575019914121174E-01    4.0815531284008960E-01
C    9.1946387104192639E-01    5.9562220295372392E-01    5.9555812745930259E-01
C    8.5185641456396136E-02    4.0786119637053725E-01    5.9582794741569933E-01
C    9.1864129234627911E-01    4.0744023882863695E-01    4.0774456893219707E-01
C    9.0792642811449453E-01    5.8542159291664408E-01    9.6089766875694788E-02
C    9.5465265591898052E-02    4.1929573452459440E-01    9.5848427002363623E-02
C    9.5574111432392486E-02    5.8487532487663785E-01    9.0814711896685874E-01
C    9.0761447728822064E-01    4.1885206676076647E-01    9.0777026748946854E-01
C    9.5966893167277148E-02    9.0804336675807917E-01    5.8517248514451692E-01
C    9.5640410171093718E-02    9.5456683526224342E-02    4.1947247028038698E-01
C    9.0793899846062964E-01    9.5587319663529458E-02    5.8513374728907375E-01
C    9.0756034694361631E-01    9.0760437907192149E-01    4.1865817116669046E-01
C    5.8523653602617909E-01    9.6013638254627817E-02    9.0790113577369069E-01
C    4.1952190637715120E-01    9.5655396948681484E-02    9.5358909021660221E-02
C    5.8451804128246476E-01    9.0768007825010488E-01    9.5357810938283813E-02
C    4.1809041978276063E-01    9.0787422364473702E-01    9.0737939073918394E-01
H    3.8998411644447534E-01    8.4849395150603635E-01    7.3097811357972287E-01
H    6.1415277150809700E-01    1.5564118254230513E-01    7.3137008154127159E-01
H    6.1404690131295847E-01    8.4875678590730397E-01    2.7230490374328653E-01
H    3.8912988046397479E-01    1.5512485557760292E-01    2.7188177857106416E-01
H    7.3098490686678463E-01    3.9013302392841009E-01    8.4850756148819473E-01
H    7.3106940551348154E-01    6.1435447448508540E-01    1.5532898562427064E-01
H    2.7201053030440925E-01    6.1375038850302133E-01    8.4844913391908394E-01
H    2.7181754545914699E-01    3.8886713148219620E-01    1.5504207966675163E-01
H    8.4857351428921068E-01    7.3106845957756317E-01    3.8998376334120599E-01
H    1.5565152221842063E-01    7.3140734167039179E-01    6.1422938179763231E-01
H    8.4878780992369163E-01    2.7235003736331148E-01    6.1407108795772825E-01
H    1.5502669146212966E-01    2.7188351754353307E-01    3.8914196320386901E-01
H    8.4872079086680075E-01    3.8972218364252714E-01    7.3127262510428104E-01
H    1.5560131900614385E-01    6.1412442990702609E-01    7.3146002465906779E-01
H    8.4867514115294163E-01    6.1370578720250091E-01    2.7276493041333533E-01
H    1.5481749527432245E-01    3.8916567019355097E-01    2.7188102562845334E-01
H    3.8863495541330922E-01    7.3166010021803274E-01    8.4863145763647607E-01
H    6.1335336495856618E-01    7.3117474735882670E-01    1.5546433781153465E-01
H    6.1377574309981586E-01    2.7275444055309633E-01    8.4868146064650563E-01
H    3.8936988092591829E-01    2.7187582214146039E-01    1.5497177236593415E-01
H    7.3125856179746207E-01    8.4875141961636813E-01    3.8966314984615397E-01
H    7.3132038811827338E-01    1.5561299833627176E-01    6.1401743999014313E-01
H    2.7271273539810831E-01    8.4870459824112032E-01    6.1366456117433610E-01
H    2.7183832298366267E-01    1.5487997299942544E-01    3.8914111616375574E-01
H    8.8954323937251378E-01    3.4873271541443135E-01    2.3116160725571550E-01
H    1.1417364413334190E-01    6.5564054058769783E-01    2.3139733547231067E-01
H    1.1367145318038074E-01    3.4857879394090474E-01    7.7252669290314846E-01
H    8.8918800746878224E-01    6.5501499974468635E-01    7.7183310326419463E-01
H    2.3127635177433531E-01    8.8967853160638466E-01    3.4863598546984093E-01
H    2.3139555842924933E-01    1.1406553047968122E-01    6.5570795717887287E-01
H    7.7260519991539434E-01    1.1384160374774645E-01    3.4863846224228229E-01
H    7.7180101872328732E-01    8.8909460509519767E-01    6.5492207149294257E-01
H    3.4869738796055977E-01    2.3135299183476385E-01    8.8964164508994659E-01
H    6.5581272301951532E-01    2.3129787443915473E-01    1.1408046450815293E-01
H    3.4783779049293029E-01    7.7281992709708813E-01    1.1415473316180451E-01
H    6.5415675554259622E-01    7.7166091378294921E-01    8.8953788469481354E-01
H    3.4824392656804587E-01    8.9033232750368296E-01    2.3118427639843597E-01
H    6.5561779198726022E-01    1.1398435763186841E-01    2.3129287388644845E-01
H    3.4878846041832712E-01    1.1394770078391858E-01    7.7247530784925311E-01
H    6.5465692145825138E-01    8.8894369256330585E-01    7.7222618042685320E-01
H    8.8997373793770274E-01    2.3105097264835567E-01    3.4868164107900290E-01
H    1.1414879552855584E-01    2.3134005210532405E-01    6.5558754913773010E-01
H    1.1386311564908899E-01    7.7251524403721550E-01    3.4878604090870702E-01
H    8.8917055323065808E-01    7.7191462946127398E-01    6.5493869420938555E-01
H    2.3079584872873840E-01    3.4827302859040349E-01    8.8997777392581889E-01
H    2.3138200837121264E-01    6.5542929021928809E-01    1.1409494842328211E-01
H    7.7222542053527954E-01    3.4913728090053320E-01    1.1389840062937343E-01
H    7.7197822368027191E-01    6.5513731959436872E-01    8.8917626011061135E-01
H    3.5930040354092374E-01    1.1938154581198372E-01    5.6962552454311421E-01
H    6.4426872949622926E-01    8.8514672796226967E-01    5.6913990655484292E-01
H    6.4467074908086475E-01    1.1924520988193933E-01    4.3430058763059742E-01
H    3.5903119456786992E-01    8.8452313307051877E-01    4.3378686094342256E-01
H    5.6959243418136896E-01    3.5924818670700187E-01    1.1932146042631589E-01
H    5.6844736323809009E-01    6.4411323646031904E-01    8.8501627125800408E-01
H    4.3360031789096737E-01    6.4486049085599628E-01    1.1915366553029474E-01
H    4.3369840640391810E-01    3.5891902585921098E-01    8.8437637402519864E-01
H    1.1939661041530358E-01    5.6964878631337135E-01    3.5924550057482102E-01
H    8.8518095370135697E-01    5.6914652787857034E-01    6.4425115017171264E-01
H    1.1927306784338004E-01    4.3439344675275871E-01    6.4463027409770823E-01
H    8.8437553480764763E-01    4.3370917492689043E-01    3.5892417717205716E-01
H    1.1952579072595786E-01    3.5889160216450355E-01    5.6991879681792246E-01
H    8.8513756123407850E-01    6.4436843151380174E-01    5.6923570133554635E-01
H    1.1932477861161170E-01    6.4453139008692062E-01    4.3458629419751282E-01
H    8.8437929661694958E-01    3.5863219448527539E-01    4.3405757185025690E-01
H    3.5840039315736666E-01    5.6985702822994433E-01    1.1920444015372554E-01
H    6.4385501562576275E-01    5.6926698570722956E-01    8.8476025140839276E-01
H    6.4436056747670367E-01    4.3470044073502617E-01    1.1931953058099103E-01
H    3.5843912662527105E-01    4.3386776543460881E-01    8.8451396189808928E-01
H    5.6988794391528097E-01    1.1957486838609137E-01    3.5886917879952912E-01
H    5.6932044337895815E-01    8.8502255353705828E-01    6.4443462564975240E-01
H    4.3460081561940311E-01    1.1929408844856977E-01    6.4454865924088756E-01
H    4.3412888940172484E-01    8.8452429495354878E-01    3.5868162885878208E-01
H    8.5901672372620907E-01    6.1975368073970749E-01    7.0059512229234677E-02
H    1.4419101673901064E-01    3.8497799626227797E-01    6.9482410466391892E-02
H    1.4430993976085307E-01    6.1901112365195077E-01    9.3473388892930154E-01
H    8.5878066830754274E-01    3.8468019206616222E-01    9.3414700635617687E-01
H    6.9900692409062173E-02    8.5912940725363496E-01    6.1946579100806298E-01
H    6.9177740296673118E-02    1.4418624592315371E-01    3.8524000741006442E-01
H    9.3447116315462064E-01    1.4435775499977430E-01    6.1925861551412498E-01
H    9.3393394211536307E-01    8.5878494189285792E-01    3.8446511169007486E-01
H    6.1949008304070774E-01    6.9940705172141945E-02    8.5896116601410766E-01
H    3.8523039676445314E-01    6.9239599076610855E-02    1.4407472171687691E-01
H    6.1888252803298893E-01    9.3424172602438837E-01    1.4394214633602875E-01
H    3.8408179583351437E-01    9.3424617939640686E-01    8.5842678481189938E-01
H    6.1868295925074956E-01    8.5868383678158988E-01    6.9269165692010345E-02
H    3.8520057299285754E-01    1.4436232102240448E-01    6.8950780124747188E-02
H    6.1940330927550968E-01    1.4485997850825119E-01    9.3425921675477552E-01
H    3.8360914069588764E-01    8.5912688549321858E-01    9.3351453912781501E-01
H    8.5900033790648866E-01    6.9605097764138049E-02    6.1946879655454457E-01
H    1.4434328110778261E-01    6.9110589275860362E-02    3.8509478007529452E-01
H    1.4480526515528910E-01    9.3444059869429497E-01    6.1931899685844372E-01
H    8.5872911284863263E-01    9.3378671065640373E-01    3.8433638220073202E-01
H    6.9600591921896493E-02    6.1922709721032010E-01    8.5922259569780268E-01
H    6.9089811093170930E-02    3.8504167637138276E-01    1.4461976349660188E-01
H    9.3435641377718226E-01    6.1952715665207669E-01    1.4493825092016621E-01
H    9.3383872731597195E-01    3.8448245421696958E-01    8.5899737564341339E-01
H    4.5410326234596221E-01    7.8311309302059359E-02    5.4959913910519775E-01
H    5.4944882909851711E-01    9.2650935765003573E-01    5.4978480964109955E-01
H    5.4957163137949594E-01    7.8522929140748307E-02    4.5362647800925154E-01
H    4.5386908192716946E-01    9.2565103383221792E-01    4.5352172042918615E-01
H    5.4940750053111520E-01    4.5401980136231762E-01    7.8260264258628628E-02
H    5.4932353646491705E-01    5.4928441030044872E-01    9.2646016345748283E-01
H    4.5326313711548016E-01    5.4989206806439439E-01    7.8244861016171938E-02
H    4.5328458675725730E-01    4.5378864670834190E-01    9.2552375434685463E-01
H    7.8344511004442383E-02    5.4957639361943578E-01    4.5405392582711634E-01
H    9.2659623177958783E-01    5.4968400489460478E-01    5.4947765608508503E-01
H    7.8517195407547466E-02    4.5364646834772326E-01    5.4952745868196984E-01
H    9.2550801862314025E-01    4.5347906859652448E-01    4.5375536696649993E-01
H    9.5381684432212621E-01    5.7873476104867649E-01    4.9894932012843146E-02
H    4.9440061112721832E-02    4.2635337992214439E-01    4.9842866167545775E-02
H    4.9276544971711432E-02    5.7805571298830194E-01    9.5391567085197937E-01
H    9.5367168869758567E-01    4.2574697830039104E-01    9.5376016022028354E-01
H    4.9802568533696509E-02    9.5396287198751484E-01    5.7847690312783906E-01
H    4.9672070734643192E-02    4.9407251555250338E-02    4.2661733687093450E-01
H    9.5373904504424756E-01    4.9310010779110160E-02    5.7837913991867118E-01
H    9.5351814650119093E-01    9.5370149574959784E-01    4.2549290667370232E-01
H    5.7858300843546895E-01    4.9857133336619321E-02    9.5383430617835885E-01
H    4.2668620848969263E-01    4.9648197224754935E-02    4.9353754003424129E-02
H    5.7756117572416366E-01    9.5341493825202461E-01    4.9048810035009077E-02
H    4.2484079735520969E-01    9.5389223438165083E-01    9.5343134635064020E-01
N    4.1372125307754792E-01    9.6494648844668440E-01    6.8379909217175194E-01
N    5.9029968773598551E-01    3.9274453235437698E-02    6.8403130486161301E-01
N    5.9017510032980935E-01    9.6503558216324947E-01    3.1975883441612118E-01
N    4.1323198866927702E-01    3.8878701885184122E-02    3.1936499905466287E-01
N    6.8380726520491042E-01    4.1383560376438649E-01    9.6494871331495058E-01
N    6.8372948170272319E-01    5.9039814034378435E-01    3.9002529610541369E-02
N    3.1945390246486022E-01    5.9009282944001495E-01    9.6476042305719445E-01
N    3.1925582306090017E-01    4.1297023241594583E-01    3.8791245121942104E-02
N    9.6499794824386298E-01    6.8386070703142265E-01    4.1372488529715629E-01
N    3.9330512336193849E-02    6.8401337168408871E-01    5.9029998216399815E-01
N    9.6504986458835296E-01    3.1982654089056001E-01    5.9021608068551523E-01
N    3.8751442191881001E-02    3.1931281536109296E-01    4.1318865399783233E-01
N    9.6503194688160743E-01    4.1354651949271864E-01    6.8387547552520211E-01
N    3.9301701189026185E-02    5.9026332100522994E-01    6.8397606627958185E-01
N    9.6500340783835747E-01    5.9007870528269202E-01    3.2013449928904680E-01
N    3.8605846206549825E-02    4.1299160160765463E-01    3.1946755992545162E-01
N    4.1268533627303922E-01    6.8424158624125053E-01    9.6492999114079558E-01
N    5.8971961850617116E-01    6.8380510321787580E-01    3.9088165176097214E-02
N    5.9012035352719716E-01    3.2015119290475508E-01    9.6499033944926127E-01
N    4.1313812175418946E-01    3.1945278311155045E-01    3.8736109548833247E-02
N    6.8385704614699205E-01    9.6505565648880842E-01    4.1345589788356640E-01
N    6.8393981023848882E-01    3.9259384700711969E-02    5.9025098731550951E-01
N    3.2010031660170069E-01    9.6501071290543827E-01    5.9005136221943477E-01
N    3.1951431410562481E-01    3.8725999882748323E-02    4.1305154167731506E-01
N    9.1346182350747107E-01    4.6514246779316570E-01    1.8397339720649633E-01
N    9.0213944860248377E-02    5.3926908736240908E-01    1.8408822578123007E-01
N    9.0017725176189681E-02    4.6487159552026164E-01    8.1998214778874801E-01
N    9.1312733521233924E-01    5.3880196701873584E-01    8.1942769537998972E-01
N    1.8399516897665677E-01    9.1357126481616147E-01    4.6499835338861462E-01
N    1.8403798604210039E-01    9.0154750335727077E-02    5.3935128911864427E-01
N    8.1994521722599500E-01    9.0046396523603120E-02    4.6496955910873516E-01
N    8.1932822450786502E-01    9.1306599381138109E-01    5.3868293828287461E-01
N    4.6505891447275005E-01    1.8404591408316509E-01    9.1350343898277298E-01
N    5.3942897085622155E-01    1.8400920492124906E-01    9.0136730449311961E-02
N    4.6432494012794640E-01    8.1981875319389075E-01    9.0232554199198428E-02
N    5.3801406021086862E-01    8.1945147961742704E-01    9.1320925877412829E-01
N    4.6466113614431059E-01    9.1365965588767484E-01    1.8379515039430216E-01
N    5.3931866155191455E-01    9.0256284094833564E-02    1.8380622621134235E-01
N    4.6507117341304499E-01    9.0251259599128539E-02    8.1992584363394672E-01
N    5.3840054180542773E-01    9.1314099585518460E-01    8.1954036745175263E-01
N    9.1363503878194996E-01    1.8372533316697803E-01    4.6505036342709788E-01
N    9.0331408290978799E-02    1.8386696341646477E-01    5.3929463123953347E-01
N    9.0185647269308764E-02    8.2000569539024359E-01    4.6505851383308455E-01
N    9.1312130059944618E-01    8.1946127677141178E-01    5.3872829073502904E-01
N    1.8362014291123274E-01    4.6470770538009287E-01    9.1375139780766645E-01
N    1.8388902496266959E-01    5.3913429418562575E-01    9.0345635739156605E-02
N    8.1978134958843984E-01    4.6537331255424819E-01    9.0283788808749391E-02
N    8.1948411130451493E-01    5.3891402333133653E-01    9.1318637517357237E-01
Zn    5.0196579995568580E-01    1.9546942631741937E-03    7.5192087916318739E-01
Zn    5.0191435616374058E-01    1.9792829461529431E-03    2.5177142611144393E-01
Zn    7.5187676687532023E-01    5.0211792673882394E-01    1.8950486031201182E-03
Zn    2.5176008397793548E-01    5.0178575969655670E-01    1.9778066757302516E-03
Zn    1.9478097691590847E-03    7.5194842477888668E-01    5.0200519408901656E-01
Zn    1.9901714979793325E-03    2.5179259991859182E-01    5.0196669736883170E-01
Zn    1.9046180942596574E-03    5.0196235411295553E-01    7.5188368745199508E-01
Zn    1.9248115073359244E-03    5.0189832936796219E-01    2.5198825190711988E-01
Zn    5.0147416217166774E-01    7.5185493547740645E-01    1.9288222672542554E-03
Zn    5.0195930813829193E-01    2.5198537201967636E-01    1.9446004749271426E-03
Zn    7.5183949783559589E-01    1.8957672148657912E-03    5.0192844094680034E-01
Zn    2.5199304387328547E-01    1.9563853011266667E-03    5.0188318557520195E-01
       SCALED  T
     &END COORD
     &KIND C
       BASIS_SET DZVP-GTH-PBE
       POTENTIAL GTH-PBE-q4
     &END KIND
     &KIND H
       MASS 2.014101777
       BASIS_SET DZVP-GTH-PBE
       POTENTIAL GTH-PBE-q1
     &END KIND
     &KIND N
       BASIS_SET DZVP-GTH-PBE
       POTENTIAL GTH-PBE-q5
     &END KIND
     &KIND Zn
       BASIS_SET DZVP-MOLOPT-SR-GTH
       POTENTIAL GTH-PBE-q12
     &END KIND
     &TOPOLOGY
       NUMBER_OF_ATOMS  276
       MULTIPLE_UNIT_CELL  1 1 1
     &END TOPOLOGY
   &END SUBSYS
 &END FORCE_EVAL
 &MOTION
   &MD
     ENSEMBLE NVT
       &THERMOSTAT
         TYPE CSVR
         &CSVR
           TIMECON 1000
         &END CSVR
       &END THERMOSTAT 
     STEPS 80000
     TEMPERATURE 300
     TIMESTEP 0.5
   &END MD
   &PRINT
     &RESTART
       FILENAME =${SYSNAME}.restart
       &EACH
         MD 1
       &END EACH
     &END RESTART
     &STRESS
       FILENAME =${SYSNAME}.stress
       &EACH
         MD 1
       &END EACH
     &END STRESS
     &VELOCITIES
       FILENAME =${SYSNAME}.vel
       &EACH
         MD 1
       &END EACH
     &END VELOCITIES
     &FORCES
       FILENAME =${SYSNAME}.frc
       &EACH
         MD 1
       &END EACH
     &END FORCES
     &CELL
       FILENAME =${SYSNAME}.cell
       &EACH
         MD 1
       &END EACH
     &END CELL
   &END PRINT
 &END MOTION
