
 @SET SYSNAME ZNI_1_300

 &GLOBAL
   PRINT_LEVEL MEDIUM 
   PROJECT_NAME ZNI_1
   RUN_TYPE MD 
 &END GLOBAL
 &FORCE_EVAL
   METHOD  QS
   STRESS_TENSOR  DIAGONAL_ANALYTICAL
   &DFT
     BASIS_SET_FILE_NAME ../data/BASIS_SET
     BASIS_SET_FILE_NAME ../data/BASIS_MOLOPT
     POTENTIAL_FILE_NAME ../data/POTENTIAL
     &SCF
       MAX_SCF  200
       EPS_SCF     1.0000000000000001E-05
       SCF_GUESS  ATOMIC
       &MIXING  T
         METHOD  PULAY_MIXING
         ALPHA     5.0000000000000000E-01
         NBUFFER  5
       &END MIXING
       &PRINT
         &RESTART  OFF
         &END RESTART
       &END PRINT
       &OT ON
         PRECONDITIONER FULL_SINGLE_INVERSE
         MINIMIZER DIIS
       &END OT         
     &END SCF
     &QS
       EPS_DEFAULT     9.9999999999999995E-08
     &END QS
     &MGRID
       NGRIDS  4
       CUTOFF     6.0000000000000000E+02
       REL_CUTOFF     4.0000000000000000E+01
     &END MGRID
     &XC
       DENSITY_CUTOFF     1.0000000000000000E-10
       GRADIENT_CUTOFF     1.0000000000000000E-10
       TAU_CUTOFF     1.0000000000000000E-10
       &XC_FUNCTIONAL  NO_SHORTCUT
         &PBE  T
         &END PBE
       &END XC_FUNCTIONAL
       &VDW_POTENTIAL
         POTENTIAL_TYPE  PAIR_POTENTIAL
         &PAIR_POTENTIAL
           R_CUTOFF     1.6000000000000000E+01
           TYPE  DFTD3
           PARAMETER_FILE_NAME ../data/dftd3.dat
           REFERENCE_FUNCTIONAL PBE
         &END PAIR_POTENTIAL
       &END VDW_POTENTIAL
     &END XC
   &END DFT
   &SUBSYS
     &CELL
       ABC 17.5703 17.6131 17.6131
       ALPHA_BETA_GAMMA 138.433 97.256 97.257
       MULTIPLE_UNIT_CELL  1 1 1
     &END CELL
     &COORD
C    9.5896555921002866E-02    2.1559958723978928E-01    3.6396223500157998E-01
C    6.4850752099232223E-01    1.1445196651878403E-01    5.1814401580287150E-01
C    8.5142566559747435E-01    7.1603108039868368E-01    6.1955830373007081E-01
C    9.0400496636594430E-01    2.6815726704825010E-01    1.1967587102275840E-01
C    1.4856809977253960E-01    7.6825632809579503E-01    8.6458803313077703E-01
C    5.9594117158826265E-01    6.1391232419245012E-01    9.6557486580295804E-01
C    4.0399912445032049E-01    3.6964681503368368E-01    1.8083573662900313E-02
C    3.5146240288782554E-01    8.6950037792501944E-01    4.6599166880892912E-01
C    3.9813327690299949E-01    1.9509649725598976E-01    9.3460302013364582E-01
C    8.9816845758403274E-01    1.8463398073199211E-01    9.4511314012418879E-01
C    1.0170262412546736E-01    4.6904377208024955E-02    2.8635557375258663E-01
C    2.6043539008099820E-01    6.9487790982026687E-01    2.9651525618648789E-01
C    7.3958243436433602E-01    3.6209872721355119E-02    4.3463524793326469E-01
C    7.6041876843919709E-01    5.4652992304317305E-01    4.4493574119611201E-01
C    2.3959954992445343E-01    6.8470417580806364E-01    7.8622412328410574E-01
C    6.0174318075428801E-01    5.3633012144448655E-01    7.9688316276841675E-01
C    8.2707443009582549E-01    1.2400083828261343E-01    9.2980111608493077E-01
C    1.7279136777671947E-01    1.0266041309814480E-01    2.9678297518665292E-01
C    3.0560180613793919E-01    6.7941504210052350E-01    3.5211508761899507E-01
C    6.9442874555016976E-01    4.6727342688708595E-02    3.7407988906149564E-01
C    8.0556944931859187E-01    6.0213271941884050E-01    4.2946617276359167E-01
C    1.9445671603231096E-01    6.2412116329224798E-01    7.9671947773841845E-01
C    6.7282502820066092E-01    5.4672772201915076E-01    8.5261868271306818E-01
C    3.2704366215641190E-01    1.7978783806240117E-01    8.7396580625534859E-01
C    1.4806937351365704E-01    3.6195959557723184E-01    1.0299283640607152E-02
C    3.5188531412515678E-01    4.6382526634337334E-01    6.1214769936073676E-01
C    3.5148807264117515E-01    8.6174897347985657E-01    7.1393777219500854E-01
C    6.4851429218637779E-01    3.6244155403547285E-01    5.1025292999305716E-01
C    8.5150132009462787E-01    9.6385327517634845E-01    6.1165678755209740E-01
C    1.4851890370649962E-01    7.6022091940648417E-01    1.1242040021719234E-01
C    8.5184230465825217E-01    8.6216802319772745E-01    2.1385319872168154E-01
C    6.4802425846532341E-01    2.6019999897495194E-01    1.1185243108612944E-01
C    9.3445029047342554E-01    1.3379504507354600E-01    7.0363364502082859E-01
C    6.5531362898156698E-02    7.6907257210811941E-01    1.9926454483256795E-01
C    6.9815025765913918E-02    4.5379627141535123E-01    1.9661043195887250E-02
C    9.3023015117434094E-01    9.4986323014168472E-01    3.8393829887444431E-01
C    5.6979771018237135E-01    2.6963829164160646E-01    2.0375629204137044E-01
C    4.3024353523038694E-01    6.3394128251657855E-01    6.9987209344333423E-01
C    5.6552578954480670E-01    4.4927426509748541E-01    5.1909354065210644E-01
C    4.3445956136137842E-01    9.5369830735145067E-01    8.8385921485571906E-01
C    1.1905546179087817E-01    4.3419576322583520E-01    9.5451732705591397E-01
C    4.7995202087698413E-01    9.3408789518798452E-01    8.1497874691562067E-01
C    5.2003952134752152E-01    3.3492140181854307E-01    4.5407590800495989E-01
C    9.7996419180219718E-01    6.4973051624036049E-02    6.8410768666978428E-01
C    6.1906265707445596E-01    2.0454525151210493E-01    1.8421575248318131E-01
C    2.0042426307384814E-02    7.0410895065976575E-01    8.4934323740197756E-02
C    8.8100049766034438E-01    8.3547725364668579E-01    3.1514719052669243E-01
C    3.8097153441987708E-01    5.6519307691652165E-01    5.8552235941759057E-01
C    9.7516366929112996E-01    6.0834643561967150E-01    3.4427843614038567E-01
C    7.3587695947902676E-01    8.6920481588896692E-01    8.4426216937261322E-01
C    2.6415162125564873E-01    1.0846019558578901E-01    1.3331589839240496E-01
C    4.7520458186662240E-01    5.9426463813292640E-01    3.5831452916234785E-01
C    5.2483197737764842E-01    8.8315124998362826E-01    1.1927422376810391E-01
C    2.4855224268094112E-02    3.6931640590061215E-01    6.3322064582945869E-01
C    7.6415442757746432E-01    3.8318510471135864E-01    8.5835419579973948E-01
C    2.3586840162317402E-01    9.4196978114296392E-02    6.1914033332416274E-01
C    3.5984706312471415E-01    1.8042983803847970E-01    1.1537286152236828E-01
C    1.4028309076721554E-01    7.0410330883385441E-02    5.0534324567039857E-01
C    6.4829279880495166E-02    6.8022996809629499E-01    3.2027466431272855E-01
C    9.3543396539099022E-01    2.5549223812740485E-01    6.1549022487864347E-01
C    5.6484656348606921E-01    5.7022393665585924E-01    4.3017771203987132E-01
C    4.3539993367017865E-01    8.6537593092596166E-01    5.4176052778985651E-03
C    6.4027214994153203E-01    7.5543242735116634E-01    8.2048108346932014E-01
C    8.5984278991343444E-01    3.6522081149403196E-01    9.3030236813681622E-01
C    4.6046296583521988E-02    7.7588375577556890E-01    4.2144901813635260E-01
C    6.4584798422600431E-01    8.7536457192936146E-01    9.2184402338157656E-01
C    3.5421918058763391E-01    2.7616956626183614E-01    2.2969865768026962E-01
C    5.4604688472101270E-01    6.7137015202589156E-01    5.2583481712155000E-01
C    4.5413884511602975E-01    9.7983238263261951E-01    1.2536658407680437E-01
C    9.5419095200935811E-01    3.7544623895401885E-01    7.2995021134906979E-01
C    8.5423663807416306E-01    4.7955919855457596E-01    2.6047721941539207E-02
C    1.4585089426695252E-01    1.7177638163202963E-01    6.2527151231340206E-01
C    6.0526556308493018E-01    9.6823564300139042E-01    6.1036187613051052E-01
C    1.4215032230486757E-01    3.6058699381365877E-01    2.5502175907792873E-01
C    8.5778357207194156E-01    1.1286632312228481E-01    2.1837333468835149E-01
C    6.4219195623587100E-01    5.0493317622846079E-01    1.1051069484419096E-01
C    3.5777941087713988E-01    4.6830207948043134E-01    8.6279458233493966E-01
C    8.9481698280549937E-01    6.1313470607256304E-01    7.5510231149778229E-01
C    1.0526591513073100E-01    8.6041966669051073E-01    7.1833858796548555E-01
C    3.9481267851117968E-01    5.0619810330237991E-03    3.6308211755028708E-01
C    8.0164794383959348E-02    3.0598545503289554E-02    8.3541029505426012E-01
C    5.8021395460892189E-01    8.5337724751040844E-02    7.8058067314716106E-01
C    4.1987147344496467E-01    2.0033866495231623E-01    5.0517792487791224E-01
C    1.9490055156645447E-01    5.3051052504559471E-01    4.5052618796936506E-01
C    8.0517725056173339E-01    2.5573924418943889E-01    3.3566420817898629E-01
C    6.9495001143092405E-01    7.0043596749102954E-01    2.8043467457426446E-01
C    3.0514325630758121E-01    5.8559105574832648E-01    5.6317868049989388E-03
C    9.1990996696339378E-01    7.5522892040951883E-01    9.5039000098305559E-01
C    6.5363324572530701E-01    1.4810866937576217E-01    8.0196949016737673E-01
C    3.4647569433029696E-01    1.4831474976436804E-01    4.9457360030882253E-01
C    1.5382086985791202E-01    5.5209516499557165E-01    3.9867203627841991E-01
C    8.4623784863508567E-01    2.4489986333185326E-01    3.9827832368196187E-01
C    6.5385110239394661E-01    6.4858937207208223E-01    3.0201593294811302E-01
C    3.4622596988037879E-01    6.4819672438104758E-01    9.9479612625880498E-01
C    8.4650075815757220E-01    7.4462095076106050E-01    8.9838759122517819E-01
C    1.5359315286176689E-01    5.2036536734151317E-02    8.9821264388599376E-01
H    4.2647298740360978E-01    4.6555299232230063E-01    7.6668629485678055E-02
H    7.3449045945636809E-02    2.8904130675143791E-01    4.0007384842763799E-01
H    3.8882189464451533E-01    9.6549148885315628E-01    5.3991665149425816E-01
H    6.1111732108711203E-01    1.5087416194210967E-01    5.7670539185727443E-01
H    8.8878156384639850E-01    7.8996949975385022E-01    7.1555420763907363E-01
H    1.1119825995690071E-01    8.2684931344351387E-01    9.0108236110272777E-01
H    5.7349696748731882E-01    6.5001735447939157E-01    3.9018392041562787E-02
H    9.2646352015475053E-01    3.2677025203341925E-01    2.1559353656718272E-01
H    9.1792591583993755E-01    1.6848101838003937E-01    8.7893189381581360E-01
H    8.1925664913959029E-02    9.6098563993012298E-01    2.5048780382386587E-01
H    2.1042557361122971E-01    6.2874394420688806E-01    2.1037726047722144E-01
H    7.8959460081404909E-01    1.1096929644277553E-04    4.1849789397967618E-01
H    7.1041928178994440E-01    4.6038136787006179E-01    3.7880058030472652E-01
H    2.8959188182627260E-01    6.6856323129549811E-01    7.5008658570294817E-01
H    5.8196551616090886E-01    5.0048310714336819E-01    7.1097529775001633E-01
H    4.1788016723778165E-01    1.2891886114706397E-01    9.1846392007721311E-01
H    2.7351975754912528E-01    9.8881337932055557E-02    7.9911951859742414E-01
H    2.9945717360848695E-01    5.9835402694005313E-01    3.2425533235440107E-01
H    7.0058396971148607E-01    2.5150414883837707E-02    2.9924580977982368E-01
H    7.9941768379006128E-01    5.7425973036584876E-01    3.4839552295408432E-01
H    7.7356046575694670E-01    4.9136808815304356E-02    8.4888226808677680E-01
H    2.0060590612696821E-01    5.4925309874017003E-01    7.7508331740750414E-01
H    7.2631051457483375E-01    5.2535281315022775E-01    8.2517936793849023E-01
H    2.2628179658871184E-01    7.5233088729086295E-02    2.7542216785861307E-01
H    7.9589818672965662E-01    8.9235312520513954E-01    5.6907453168787203E-01
H    6.7710676163704075E-01    2.7304926738112323E-01    6.9347731003938706E-02
H    3.2273764845783504E-01    3.9220482113020289E-01    5.9584827088327963E-01
H    2.9587839452483145E-01    8.1919684699710904E-01    6.4246425823856945E-01
H    7.0412391243073791E-01    3.4659822097890275E-01    5.2332458602469711E-01
H    2.0413032311246671E-01    7.7326275904027719E-01    9.6560090522485584E-02
H    8.2267635581306320E-01    8.4587889919083115E-01    1.4224511114231375E-01
H    1.7716218151683871E-01    3.1948520996286184E-01    2.3182229469742282E-02
H    4.5453762590191826E-01    9.9762439026903382E-01    9.7375331102550311E-01
H    4.5437293762776158E-02    7.9280017947128156E-01    2.6901030899243861E-01
H    2.3729117473351879E-02    4.9764772581556393E-01    4.3656946191829762E-02
H    9.7638121961318780E-01    1.9969828362026709E-02    4.7384916269457827E-01
H    5.2371904881935893E-01    2.9365441689402133E-01    2.4762372368297242E-01
H    4.7639663619905342E-01    7.2385304464691247E-01    7.6998229950848884E-01
H    5.4542774142763384E-01    5.1901943192146927E-01    5.4282825312077498E-01
H    9.5451472884337618E-01    2.2368526867164890E-01    7.4754889385576395E-01
H    6.2219346530640562E-01    1.6253113222844920E-01    2.0788543736489390E-01
H    3.7789361105716779E-01    5.8577855183019190E-01    5.4041882177217770E-01
H    5.4580425337847238E-01    9.5775446163142497E-01    8.3540766536037048E-01
H    4.5418759160974387E-01    2.8944262662135684E-01    4.1187489469127442E-01
H    4.5820066289813721E-02    8.5447136391921696E-02    7.0783609511480594E-01
H    9.5418998016435175E-01    6.6194936600805243E-01    3.9473945112787859E-02
H    8.7796427631758589E-01    7.9034038976788312E-01    3.3569668238013073E-01
H    1.2216051399290263E-01    4.5779583573397353E-01    9.1243726258078717E-01
H    7.8554714602353437E-01    8.9816221135455421E-01    8.3103077571778128E-01
H    4.3329134122296764E-01    5.8123195622283552E-01    2.9542151037629499E-01
H    5.6665999995257554E-01    8.6221594688568859E-01    1.4829113578293734E-01
H    9.3323462202193497E-01    5.4544218631671482E-01    3.3121924571635653E-01
H    6.6675287686171730E-02    3.9831765372034794E-01    6.1226553823922192E-01
H    7.1444214351276991E-01    3.6235415737345184E-01    7.9539256319359353E-01
H    2.8553354958011523E-01    8.0968245851903209E-02    6.4810665577782023E-01
H    2.1443955555602240E-01    4.5492696244891925E-02    1.1247669861299904E-01
H    3.9946755230867953E-01    1.8045167777885474E-01    7.2692678419954443E-02
H    8.9945759893643262E-01    3.2253426140835056E-01    9.3032086559949634E-01
H    1.0071589646995924E-01    3.0762347543796087E-02    4.2297877094350467E-01
H    1.0754864823876233E-01    6.8027017644878185E-01    2.8069158875109845E-01
H    8.9283949518272099E-01    1.7311319319515250E-01    5.7282723966653526E-01
H    6.0755726486443151E-01    5.3062896622471256E-01    4.3021114752100131E-01
H    3.9280809488512042E-01    8.2270036699485871E-01    9.2303178689208298E-01
H    6.0069836342262151E-01    6.7307452923278865E-01    7.8084068555868602E-01
H    6.1100446094828609E-01    9.1395670596606626E-01    9.8381679773171526E-01
H    3.8905514740480013E-01    3.7301140470872396E-01    3.0320620332050380E-01
H    5.6912685539559915E-01    7.3310042881767212E-01    6.2258054807051233E-01
H    4.3109241219670463E-01    5.3496454786008119E-02    1.6395401378156352E-01
H    6.9141410705170658E-02    8.7263510385736676E-01    4.8320455548715230E-01
H    9.3116588564264691E-01    4.1404938750125314E-01    8.0363672440813771E-01
H    8.8908395601152812E-01    5.5305989909675746E-01    1.2288528908660576E-01
H    1.1101551878975609E-01    2.3375612777245808E-01    6.6385346644543897E-01
H    9.8735115374894156E-02    7.6443002820922423E-01    6.4005647292750001E-01
H    4.0136982547083827E-01    9.1562265689021038E-01    2.9135864458916444E-01
H    1.2453535077028548E-01    2.6468898545874220E-01    1.6538855323186510E-01
H    8.7533119768891088E-01    4.0802778354043362E-02    1.4003920884429144E-01
H    6.2457760177306376E-01    4.1529860236227512E-01    1.4611432822676480E-02
H    3.7533369168979791E-01    3.8996855793923257E-01    7.9074746642803706E-01
H    9.0135753186728251E-01    5.4141294636010273E-01    6.6564934292878819E-01
H    5.9870898576902121E-01    8.8993771413793499E-01    5.1436184083004477E-01
H    5.4722177794637838E-01    1.1336140054007304E-01    8.4233802871129015E-01
H    4.5286168526260617E-01    2.9508446217955636E-01    5.6613603378774613E-01
H    2.2840287174856977E-01    5.9211641427943784E-01    5.4531669820516226E-01
H    7.7174388651732406E-01    3.1710355337423246E-01    3.6384284791629334E-01
H    7.2846393685957822E-01    7.9522300112182664E-01    3.4204217849758684E-01
H    2.7169450800597617E-01    6.1376881345127832E-01    6.6981156980668893E-02
H    9.5291684395757370E-01    8.1619113296339729E-01    4.5133227491641004E-02
H    4.7149306146775372E-02    9.2325110366540453E-02    8.6341248944695526E-01
H    1.9637982871892806E-01    1.3560777423124781E-01    9.8957619505284011E-01
H    1.4605027180965721E-01    6.3566078329394848E-01    4.3966033027401319E-01
H    8.5406208921829796E-01    2.9365764853910326E-01    4.8962751299851287E-01
H    6.4606718573791588E-01    6.8958548323685354E-01    3.8557999180532876E-01
H    6.9643451775129339E-01    2.3946512549878618E-01    8.8552601930047925E-01
H    3.5404825122149147E-01    7.3953784365210506E-01    4.3537624885052029E-02
H    8.0374017047383517E-01    7.9320996867093252E-01    9.3919309507723592E-01
H    3.0371330243166017E-01    1.8910022100017845E-01    5.4316620089988543E-01
N    8.6341766051415847E-01    7.0971790112711430E-01    5.4094182057679763E-01
N    8.3141920702871797E-01    1.7755186631428621E-01    4.1222118797179644E-02
N    1.6846908523514104E-01    2.0972180981961400E-01    3.4594273132754144E-01
N    3.6346071800532853E-01    7.9089083329860888E-01    4.5968398181468673E-01
N    6.3654088307649381E-01    9.6302267171310907E-02    4.2763788236707023E-01
N    1.3659818354250411E-01    6.7771015295193771E-01    8.4637562006347156E-01
N    6.6850575653986988E-01    5.9586914212501951E-01    9.5967544583748254E-01
N    3.3140780255359958E-01    2.9119837885040067E-01    9.2748836139151403E-01
N    4.4645185467544934E-01    3.1602945930562854E-01    2.6363404675909329E-02
N    5.3425282087031921E-02    1.1954140725187479E-01    3.2980803756915289E-01
N    2.8967770638242452E-01    8.1594595729339714E-01    3.6973057989504549E-01
N    7.1030176558488589E-01    8.0000853445346576E-02    5.2636319021820210E-01
N    7.8965982134151957E-01    6.1975988063415599E-01    5.6601068851527692E-01
N    2.1033792297797765E-01    7.7647368241729275E-01    8.3010309349149325E-01
N    5.5347374129223181E-01    5.7978892230543921E-01    8.6953492106636554E-01
N    9.4647263708012153E-01    2.7642068915089896E-01    6.6058115347801358E-02
N    6.6853736760408988E-01    1.9937438282739123E-01    1.2611429850037070E-01
N    3.3141970613189520E-01    4.5761276246871352E-01    5.3083019121172947E-01
N    4.2670352388587451E-01    8.7594181139377691E-01    7.0751643841471346E-01
N    5.7330516279366617E-01    2.8078812291874455E-01    4.4926348674727529E-01
N    9.2672663645443309E-01    9.5749778146751741E-01    6.2594442111742588E-01
N    7.3310810959637693E-02    6.9927206257361640E-01    3.0788157188132912E-02
N    8.3143267122204567E-01    7.8079391520819663E-01    2.0757774788691921E-01
N    1.6853713889046418E-01    3.7611591661265636E-01    9.4937575183713896E-01
N    3.5292835082798518E-01    9.0706654042941393E-01    8.1876248922762285E-01
N    9.1148328595163208E-01    9.6583367419725152E-01    3.1868323715167735E-01
N    5.8842331957955918E-01    3.0422892124360518E-01    1.5710724157919256E-01
N    8.5292161229839403E-01    6.8648938581720442E-02    6.5693029954333715E-01
N    1.4707664283874550E-01    8.0395139974420415E-01    2.1573416758766270E-01
N    4.1154042690990766E-01    5.6864092603931859E-01    7.1579722391776834E-01
N    6.4706870549096573E-01    4.6578006435930841E-01    5.5403572527483602E-01
N    8.8470009951637382E-02    4.0721938362441518E-01    5.4325004179014799E-02
N    5.1932846502338381E-01    5.2140684272147664E-01    3.2411012023361602E-01
N    8.0280407812616994E-01    3.0486409246270607E-01    8.2412338301853849E-01
N    1.9727858401189119E-01    2.1295965735916134E-02    5.0213051535680764E-01
N    1.9285202959140671E-02    5.7415345031498677E-01    2.7141860499647030E-01
N    9.8083668579190963E-01    2.5227269138182978E-01    5.5490401174255621E-01
N    4.8081715177232248E-01    8.0481635941980501E-01    2.2215436819886013E-03
N    6.9726799292498620E-01    7.5219799417745237E-01    7.7135443395913139E-01
N    3.0282200921012875E-01    7.4245046891647182E-02    5.5017320785987076E-02
N    2.0675313357536018E-01    1.8604144541473699E-01    6.9683567276538261E-01
N    2.9324629232640875E-01    2.2942095251737765E-01    2.4018074973871689E-01
N    4.8900099908961497E-01    6.8581698773470201E-01    4.7916011074728687E-01
N    5.1106507277924718E-01    9.9020346137061843E-01    1.9695879190769036E-01
N    9.8898576769064683E-01    7.2919814934455374E-01    4.3587224284345771E-01
N    1.1105667590772555E-02    4.4701988706269180E-01    7.4029035616619177E-01
N    7.9326855674981855E-01    4.9005863069724342E-01    9.7931273533516339E-01
N    7.0676584912648810E-01    9.4691340808736157E-01    9.3611024588371539E-01
N    6.2050521881503384E-01    5.2441990976130126E-01    1.9353563832003448E-01
N    6.6898400870624108E-01    7.3020460434984280E-02    6.9330369719007356E-01
N    3.3111252598981894E-01    2.4284472305158733E-02    4.0416201910523625E-01
N    1.2048152391846884E-01    4.4361420449639544E-01    2.7449985403879074E-01
N    8.7948784874311947E-01    1.5399697883313282E-01    3.2306765644826413E-01
N    3.7949373730959901E-01    5.7298768001794098E-01    9.0391462863100736E-01
N    8.3111403333072986E-01    6.5421010395178492E-01    7.7435063951662275E-01
N    1.6897288096828353E-01    9.4339575933633868E-01    8.2314406527162687E-01
N    4.9987263157500572E-02    9.0867326817826966E-01    7.2113087728719782E-01
N    1.8730549360107340E-01    4.0864989674671931E-01    3.5855886442278412E-01
N    8.1268768109816003E-01    1.7132185430196892E-01    2.2134486791780927E-01
N    6.8736069260390831E-01    6.0846312770154309E-01    1.5857569628719528E-01
N    5.5000918202163485E-01    9.7105694412989485E-01    6.5865685383150663E-01
N    3.1266132916724954E-01    4.7128048408160961E-01    9.2123588236704423E-01
N    9.5007819404921479E-01    6.7116837883609615E-01    8.5864504169584566E-01
N    4.5005114865022844E-01    1.0861613979690246E-01    4.2111568124417048E-01
Zn    9.5426823356980217E-01    8.2496438888958390E-01    5.8058722801778617E-01
Zn    7.5583086705149327E-01    1.2641449126876131E-01    8.0856906244847482E-02
Zn    2.4411786950758393E-01    3.2501699898731645E-01    3.7050918843918695E-01
Zn    4.5428848924478510E-01    8.3055622617296265E-01    5.7497447427851656E-01
Zn    5.4576412362828020E-01    1.2073980731843365E-01    3.7641332505514047E-01
Zn    4.5799709395035693E-02    6.2645233713863968E-01    8.7075915335302090E-01
Zn    7.4416572790837687E-01    6.2043033980479967E-01    7.4960854805525029E-02
Zn    2.5580695305475254E-01    3.3082341253097319E-01    8.7635527818455627E-01
Zn    2.5977003300326107E-01    9.1843918239090649E-01    8.7500602704335795E-01
Zn    2.4028968498936576E-01    9.0847128846674252E-01    3.6515545730933119E-01
Zn    4.3710723703789714E-02    4.1860002717909345E-01    1.5873125298234628E-01
Zn    9.5624535433999680E-01    1.1502942052711770E-01    3.7484801789495786E-01
Zn    5.4370884702917810E-01    4.0867732763773795E-01    1.6851573228080746E-01
Zn    4.5627580784078253E-01    6.2477352196446689E-01    8.6498078153806313E-01
Zn    7.4027336785441222E-01    6.1521319221101667E-01    6.5855496874857999E-01
Zn    7.5975064469247244E-01    1.2485860639634960E-01    6.6829769167236497E-01
       SCALED  T
     &END COORD
     &KIND C
       BASIS_SET DZVP-GTH-PBE
       POTENTIAL GTH-PBE-q4
     &END KIND
     &KIND H
       MASS 2.014101777
       BASIS_SET DZVP-GTH-PBE
       POTENTIAL GTH-PBE-q1
     &END KIND
     &KIND N
       BASIS_SET DZVP-GTH-PBE
       POTENTIAL GTH-PBE-q5
     &END KIND
     &KIND Zn
       BASIS_SET DZVP-MOLOPT-SR-GTH
       POTENTIAL GTH-PBE-q12
     &END KIND
     &TOPOLOGY
       NUMBER_OF_ATOMS  272
       MULTIPLE_UNIT_CELL  1 1 1
     &END TOPOLOGY
   &END SUBSYS
 &END FORCE_EVAL
 &MOTION
   &MD
     ENSEMBLE NVT
       &THERMOSTAT
         TYPE CSVR
         &CSVR
           TIMECON 1000
         &END CSVR
       &END THERMOSTAT 
     STEPS 80000
     TEMPERATURE 300
     TIMESTEP 0.5
   &END MD
   &PRINT
     &RESTART
       FILENAME =${SYSNAME}.restart
       &EACH
         MD 1
       &END EACH
     &END RESTART
     &STRESS
       FILENAME =${SYSNAME}.stress
       &EACH
         MD 1
       &END EACH
     &END STRESS
     &VELOCITIES
       FILENAME =${SYSNAME}.vel
       &EACH
         MD 1
       &END EACH
     &END VELOCITIES
     &FORCES
       FILENAME =${SYSNAME}.frc
       &EACH
         MD 1
       &END EACH
     &END FORCES
     &CELL
       FILENAME =${SYSNAME}.cell
       &EACH
         MD 1
       &END EACH
     &END CELL
   &END PRINT
 &END MOTION
