SimulationType                MonteCarlo
NumberOfCycles                10000
NumberOfEquilibrationCycles   0
PrintEvery                    1
Movies                        yes
WriteMoviesEvery              1000

RestartFile					 no

ContinueAfterCrash no
WriteBinaryRestartFileEvery   1000

randomSeed 1

CutOff 8.0
CutOffChargeCharge 8.0
CutOffChargeBondDipole 8.0
CutOffBondDipoleBondDipole 8.0

RemoveAtomNumberCodeFromLabel yes
ChargeMethod                  Ewald
EwaldPrecision                1e-6

Framework                     0
FrameworkName                 CHA_SI_defect_0.50_per_cell_not_equilibrated
UnitCells                     1 1 1

ExternalTemperature           300.0

RotationNestProbability		  1.0

Component 0 MoleculeName             Tip4p
            MoleculeDefinition       Local
			TranslationProbability   0
            RotationProbability      0
            CreateNumberOfMolecules  0
