SimulationType                MonteCarlo
NumberOfCycles                200000
NumberOfEquilibrationCycles   400000
PrintEvery                    1000
Movies                        yes
WriteMoviesEvery              1000

RestartFile					 no

ContinueAfterCrash no
WriteBinaryRestartFileEvery   1000


CutOff 8.0
CutOffChargeCharge 8.0
CutOffChargeBondDipole 8.0
CutOffBondDipoleBondDipole 8.0

RemoveAtomNumberCodeFromLabel yes
ChargeMethod                  Ewald
EwaldPrecision                1e-6

Framework                     0
FrameworkName                 MFI_Olson_SI_defect_4.00_per_cell_equilibrated
UnitCells                     1 1 1

ExternalTemperature           300.0
ExternalPressure              3.001e7

Component 0 MoleculeName             Tip4p
            MoleculeDefinition       Local
			FugacityCoefficient      0.000222000622444
            TranslationProbability   0.5
            RotationProbability      0.5
            SwapProbability          1.0
            CreateNumberOfMolecules  0

