&GLOBAL
 PROJECT NT12-24
 RUN_TYPE MD
 PRINT_LEVEL MEDIUM
&END GLOBAL
&FORCE_EVAL
 STRESS_TENSOR DIAGONAL_ANALYTICAL
 &DFT
  BASIS_SET_FILE_NAME ../data/BASIS_SET
  BASIS_SET_FILE_NAME ../data/BASIS_MOLOPT
  POTENTIAL_FILE_NAME ../data/POTENTIAL
  &QS
   METHOD GPW
   EPS_DEFAULT  1.0E-7
   EPS_PGF_ORB  1.0E-7
  &END QS
  &MGRID
   CUTOFF 600
   NGRIDS 5
   REL_CUTOFF 70
  &END MGRID
  &SCF
   EPS_SCF    1.000E-05
   SCF_GUESS  ATOMIC
   MAX_SCF 30
   &OT ON
    MINIMIZER  DIIS
    PRECONDITIONER  FULL_SINGLE_INVERSE
   &END OT
   &MIXING  T
    METHOD  PULAY_MIXING
    ALPHA     5.0000000000000000E-01
    NBUFFER  5
   &END MIXING
   &OUTER_SCF  T
    EPS_SCF  1.000E-05
    MAX_SCF  10
   &END OUTER_SCF
  &END SCF
  &XC
   DENSITY_CUTOFF     1.0000000000000000E-10
   GRADIENT_CUTOFF     1.0000000000000000E-10
   TAU_CUTOFF     1.0000000000000000E-10
   &XC_FUNCTIONAL  NO_SHORTCUT
    &PBE  T
    &END PBE
   &END XC_FUNCTIONAL
   &VDW_POTENTIAL
    POTENTIAL_TYPE  PAIR_POTENTIAL
    &PAIR_POTENTIAL
     R_CUTOFF     1.6000000000000000E+01
     TYPE  DFTD3
     PARAMETER_FILE_NAME ../data/dftd3.dat
     REFERENCE_FUNCTIONAL PBE
    &END PAIR_POTENTIAL
   &END VDW_POTENTIAL
  &END XC
 &END DFT
 &SUBSYS
  &CELL
   ABC [angstrom] 24.000 24.000 8.486
   ALPHA_BETA_GAMMA [deg] 90.0 90.0 120.0
   MULTIPLE_UNIT_CELL  1 1 1
  &END CELL
  &COORD
   Al         9.6634121572        1.7623070195        2.7928200043
   Al        -9.6634224620       -1.7616808093        2.7937329456
   Al        -1.7780680365        9.7506181230        2.8030218405
   Al         1.7788578451       -9.7542981032        2.7985664152
   Al        -9.6700897949       -1.7644799201       -2.7806098695
   Al         9.6693394581        1.7636544445       -2.7815072568
   Al         1.7774771462       -9.7509015258       -2.8055028877
   Al        -1.7785001944        9.7542620891       -2.8011393104
   Al         8.9860469067        4.2478642677       -1.4456714615
   Al        -8.9858522258       -4.2485380664       -1.4454929201
   Al        -4.1924426103        8.8483515130       -1.4545129252
   Al         4.1946031745       -8.8526252053       -1.4548445725
   Al        -8.9805274859       -4.2430858185        1.4523324472
   Al         8.9804882182        4.2435253242        1.4520779252
   Al         4.1930224679       -8.8480508448        1.4543816156
   Al        -4.1953956409        8.8520213580        1.4546645259
   Al         7.5556529775        6.4144168967        2.8057526112
   Al        -7.5559816254       -6.4143754822        2.8050176806
   Al        -6.3601871805        7.4912639070        2.7897315167
   Al         6.3594847205       -7.4878148708        2.7859752096
   Al        -7.5576959641       -6.4179894680       -2.7989537359
   Al         7.5582861852        6.4178949062       -2.7983151712
   Al         6.3600850345       -7.4917747250       -2.7884393148
   Al        -6.3595371161        7.4882927623       -2.7845198398
   Al         5.5664422514        8.0552677633       -1.4540902249
   Al        -5.5655214842       -8.0557747771       -1.4554901139
   Al        -8.1706744954        5.6579364145       -1.4462732349
   Al         8.1653628610       -5.6558831876       -1.4502614053
   Al        -5.5701461115       -8.0586329896        1.4536177341
   Al         5.5689899697        8.0586424187        1.4551840248
   Al         8.1707085378       -5.6570983742        1.4479719559
   Al        -8.1656958962        5.6552217821        1.4517133867
   Al         3.3078821036        9.2539298945        2.7896143363
   Al        -3.3079431696       -9.2560974311        2.7820359863
   Al        -9.3329161185        3.3358408321        2.8075192455
   Al         9.3367980527       -3.3368063612        2.8031339254
   Al        -3.3053189759       -9.2496927870       -2.7923552259
   Al         3.3051358125        9.2512601667       -2.7848845256
   Al         9.3330637650       -3.3355898389       -2.8012282438
   Al        -9.3376601720        3.3365342205       -2.7965841917
   Al         0.8142051966        9.9046350551       -1.4475024904
   Al        -0.8152221623       -9.8989547071       -1.4519454451
   Al        -9.7653859898        0.7930434549       -1.4518795284
   Al         9.7640992966       -0.7938820762       -1.4527134793
   Al        -0.8144802022       -9.9061575944        1.4458208824
   Al         0.8151266807        9.8997061472        1.4505421891
   Al         9.7590103700       -0.7926128509        1.4564583673
   Al        -9.7587358353        0.7932695991        1.4574224844
    H         5.8926766503        2.1113917002       -0.0022611901
    H        -5.8930904745       -2.1110446029       -0.0025412172
    H        -1.8918863223        5.9204138983        0.0040960754
    H         1.8916619814       -5.9204497244       -0.0042845774
    H         7.4846858790        8.3009801364       -0.0009930184
    H        -7.4850463145       -8.3010043507       -0.0049245777
    H        -8.5025638486        7.5776484600        0.0035679233
    H         8.5025321144       -7.5775865753       -0.0004924843
    H        11.4439856921       -1.9179666884       -3.1063508228
    H       -11.4465573026        1.9169260593       -3.1056403582
    H         2.1392336873       11.5388455248       -3.0424675093
    H        -2.1334963715      -11.5313219726       -3.0509156440
    H       -11.4428659571        1.9186282622        3.1076752134
    H        11.4446335101       -1.9176219780        3.1066269701
    H        -2.1526760922      -11.5585744074        3.0153372696
    H         2.1472893005       11.5505570741        3.0237601968
    H         5.2166384573        3.5856267292        4.2595590686
    H        -5.2167123025       -3.5854712539        4.2586230759
    H        -3.3563469386        5.1682062524        4.2230039911
    H         3.3563266958       -5.1682794548        4.2639038669
    H         5.1262526344        9.8372898001        4.2502058815
    H        -5.1262495693       -9.8378821525        4.2357153423
    H       -10.2667108426        5.0598965499        4.2482769017
    H        10.2664981510       -5.0597552537        4.2457434882
    H        11.5117649967        1.0374047371        1.1189117794
    H       -11.5107667784       -1.0374948712        1.1189441924
    H        -1.0490511343       11.6328811707        1.1303658089
    H         1.0478281489      -11.6628040696        1.1506695202
    H       -11.5162195349       -1.0377653951       -1.1076298634
    H        11.5143138831        1.0377025534       -1.1078322959
    H         1.0507879159      -11.6246294061       -1.1241164643
    H        -1.0495664482       11.6542125820       -1.1443807485
    H         4.1814297952        4.5984825105        0.0040892281
    H        -4.1814860285       -4.5988195609        0.0031508984
    H        -4.7745231158        4.0473025847       -0.0037480059
    H         4.7743784492       -4.0474545179        0.0042842843
    H         2.3114870160       11.1519872912        0.0008870455
    H        -2.3117256113      -11.1523442688       -0.0040626373
    H       -10.9318261253        2.3316236524        0.0032622311
    H        10.9307973005       -2.3316851875        0.0044028643
    H        11.0831061407        3.9152632256       -3.0195754974
    H       -11.0865621784       -3.9158687395       -3.0149393483
    H        -4.0618599665       10.8693959279       -3.1060112893
    H         4.0605078978      -10.8703997736       -3.1073847786
    H       -11.0532812404       -3.9173327105        3.0512242094
    H        11.0568609807        3.9178610343        3.0463377744
    H         4.0617422557      -10.8696419510        3.1058238282
    H        -4.0604576073       10.8702667796        3.1069473642
    H         2.7977346615        5.4907396960        4.2217768591
    H        -2.7976635360       -5.4914232136        4.2075113106
    H        -5.7140277774        2.7245999713        4.2767783007
    H         5.7133959534       -2.7249616649        4.2271055699
    H        -0.7514924280       11.4210665014        4.2419172280
    H         0.7512408775      -11.4212816757        4.2384120387
    H       -11.0827629152       -0.4791909642        4.2532037256
    H        11.0826540407        0.4793987296        4.2506493519
    H         9.5421738032        6.7220500629        1.1240902861
    H        -9.5417984163       -6.7215954609        1.1237228600
    H        -6.6575387483        9.4525759139        1.1142658291
    H         6.6530397466       -9.4506422024        1.1141354311
    H        -9.5764455585       -6.7396602237       -1.1512976616
    H         9.5760409857        6.7392778578       -1.1506221528
    H         6.6566915628       -9.4530699811       -1.1131029363
    H        -6.6523330199        9.4505331983       -1.1128554671
    H         1.1176592728        6.1586956059       -0.0040327548
    H        -1.1180548630       -6.1590084632        0.0021303373
    H        -6.0745452367        1.3203555283       -0.0020314415
    H         6.0738864246       -1.3210624061       -0.0030016434
    H        -3.4465809067       10.6325468543        0.0001918177
    H         3.4464303312      -10.6323544699        0.0011535085
    H       -10.8139302229       -3.5742778521        0.0035923147
    H        10.8139533188        3.5740272069        0.0041791452
    H         7.3840372459        8.9529008607       -3.1051160720
    H        -7.3831112607       -8.9540707728       -3.1041662925
    H        -8.9297352343        7.6381634157       -3.0213616315
    H         8.9253697386       -7.6234567889       -3.0378790517
    H        -7.3828480873       -8.9501373494        3.1089808412
    H         7.3822577128        8.9512201031        3.1081544617
    H         8.9275153888       -7.6327704042        3.0286299428
    H        -8.9235636515        7.6176773609        3.0453092209
    H        -0.4970559114        6.3106427872        4.2594602994
    H         0.4969872788       -6.3107435257        4.2265970500
    H        -6.1549541110       -0.3238047160        4.2771303014
    H         6.1545452616        0.3233960672        4.2776371269
    H        -5.9566121591        9.3579361497        4.2499852939
    H         5.9567504486       -9.3582149108        4.2377684057
    H        -9.5153124657       -6.3612915338        4.2473319689
    H         9.5155116958        6.3612132985        4.2475584487
    H         4.8570605206       10.4913200133        1.1138992180
    H        -4.8595779342      -10.4903060278        1.1082248197
    H       -10.6013767097        4.9063310278        1.1350598455
    H        10.6213769953       -4.9197224974        1.1501038079
    H        -4.8566529427      -10.4884097956       -1.1187042888
    H         4.8590240428       10.4870702974       -1.1131920088
    H        10.5948160335       -4.9059614111       -1.1245306980
    H       -10.6156636488        4.9196590243       -1.1390942851
    O         6.4403396182        1.2892251910       -0.0003901133
    O        -6.4407592730       -1.2888734670       -0.0004240539
    O        -1.1106523487        6.5208196466        0.0000716209
    O         1.1104922911       -6.5209671164       -0.0001519878
    O         8.7538537456        0.0196779253        0.0008850426
    O        -8.7544530198       -0.0198220629        0.0012977874
    O        -0.0344611383        8.9411686325        0.0006953744
    O         0.0344726282       -8.9415543582       -0.0013642933
    O         8.5794456233        2.3608013868        1.3544560823
    O        -8.5796384008       -2.3604795998        1.3547878300
    O        -2.3043555651        8.6119900090        1.3496253916
    O         2.3039184890       -8.6129671538        1.3474654780
    O        -8.5836910498       -2.3625607764       -1.3494966531
    O         8.5833470001        2.3621366791       -1.3498112999
    O         2.3036557367       -8.6121352776       -1.3506422966
    O        -2.3033983102        8.6128410445       -1.3484188385
    O        10.1905895970        4.3278042427        0.0026277659
    O       -10.1904562337       -4.3276492879        0.0028694692
    O        -4.2834095094       10.1211564775       -0.0001025950
    O         4.2836403447      -10.1212972932       -0.0000016201
    O        10.7714516067        0.7418763909        1.6962286902
    O       -10.7713023377       -0.7413006564        1.6968959619
    O        -0.7262634234       10.9674083958        1.7639580254
    O         0.7292839378      -10.9725509089        1.7595643488
    O       -10.7784032944       -0.7427316712       -1.6886224935
    O        10.7773582040        0.7418614689       -1.6894253392
    O         0.7259402255      -10.9673625760       -1.7652264077
    O        -0.7289281582       10.9720969886       -1.7612391564
    O         5.9631252214        2.9394752448        4.2726533379
    O        -5.9632037791       -2.9393194301        4.2726093013
    O        -2.7487029115        5.9435951820        4.2148622451
    O         2.7486797208       -5.9437013686        4.2712276408
    O         8.5411623334        2.3312416186        4.2540358398
    O        -8.5413661151       -2.3313310454        4.2546375865
    O        -2.2835408823        8.5421814940        4.2450975055
    O         2.2835674853       -8.5422739075        4.2384749180
    O         7.7887068181        4.5216932214       -2.8936120819
    O        -7.7882961732       -4.5219654348       -2.8936745210
    O        -4.4387089982        7.6488626234       -2.9058271764
    O         4.4443260273       -7.6621755336       -2.9083029948
    O        -7.7839997254       -4.5149935380        2.9080472236
    O         7.7835440515        4.5152169241        2.9078898369
    O         4.4392752550       -7.6481498200        2.9058049120
    O        -4.4448648922        7.6610150374        2.9082751693
    O         8.6871479227        6.8810302687        4.2465782169
    O        -8.6869990569       -6.8808395160        4.2462931955
    O        -6.7053478485        8.7221204842        4.2493303878
    O         6.7052963547       -8.7222876805        4.2386738739
    O        10.3673169204        3.4925443268       -2.5094959670
    O       -10.3667023583       -3.4939511712       -2.5097448356
    O        -3.5416152960       10.2854738802       -2.5091402543
    O         3.5395671871      -10.2879222627       -2.5094266896
    O       -10.3651932756       -3.4858931102        2.5115928523
    O        10.3645359666        3.4868420774        2.5117002222
    O         3.5423745250      -10.2851963805        2.5088001533
    O        -3.5404276670       10.2873128928        2.5087629651
    O         5.0920173219        4.2221025922        0.0001093077
    O        -5.0920413967       -4.2223173231        0.0001174701
    O        -4.3366295342        4.9326829825        0.0002441829
    O         4.3363762644       -4.9328676062       -0.0001188133
    O         7.7264095135        4.5006141766        0.0015305796
    O        -7.7262940004       -4.5004467055        0.0014184358
    O        -4.3935754727        7.5709142707        0.0008377849
    O         4.3938636511       -7.5710937475       -0.0007051848
    O         6.3063692013        6.3008032303        1.3508835620
    O        -6.3069426408       -6.3011391182        1.3500173425
    O        -6.3345520149        6.2506596233        1.3540383819
    O         6.3361073853       -6.2498168786        1.3516823177
    O        -6.3066730335       -6.3018629956       -1.3478475709
    O         6.3074482190        6.3017977507       -1.3471440670
    O         6.3345589661       -6.2513951561       -1.3530682209
    O        -6.3359965368        6.2501574697       -1.3509491713
    O         6.6235085989        8.7700911506        0.0001676387
    O        -6.6238363507       -8.7705043266       -0.0008361395
    O        -8.8429367466        6.6605407066        0.0023590212
    O         8.8423383042       -6.6606679933       -0.0010265009
    O         9.1350036236        6.1124294946        1.7652825427
    O        -9.1352955858       -6.1120034880        1.7653402926
    O        -6.0318123034        8.9613090508        1.6935126639
    O         6.0279332713       -8.9582827368        1.6931714348
    O        -9.1376888053       -6.1184073154       -1.7596802932
    O         9.1379893377        6.1179324969       -1.7595016593
    O         6.0312685688       -8.9617731151       -1.6929203408
    O        -6.0275485747        8.9589974119       -1.6928603520
    O         3.7730995729        5.3520929805        4.2148829192
    O        -3.7729809530       -5.3524691756        4.2138220752
    O        -5.5273196671        3.6941772661        4.2726077560
    O         5.5268243816       -3.6944727622        4.2145306892
    O         6.2560783511        6.2486950433        4.2485441920
    O        -6.2560766824       -6.2487615517        4.2466016702
    O        -6.2895901408        6.2311699793        4.2476937136
    O         6.2892657054       -6.2312348091        4.2413865189
    O         4.4039546144        7.6684735264       -2.9051690370
    O        -4.4030582139       -7.6687086166       -2.9082604980
    O        -7.8102470746        4.4850577281       -2.8951049439
    O         7.8015500970       -4.4816302987       -2.9032856505
    O        -4.4143288888       -7.6800575730        2.9059080840
    O         4.4133839620        7.6799212315        2.9089577088
    O         7.8108092828       -4.4855029705        2.8997010124
    O        -7.8023991788        4.4817025092        2.9069279824
    O         4.2011639101       10.1681980369        4.2493201369
    O        -4.2013531273      -10.1682400116        4.2375365323
    O       -10.3029564316        4.0825863383        4.2488553475
    O        10.3027427359       -4.0825389692        4.2464127263
    O         7.1363000288        8.2107130706       -2.5086443948
    O        -7.1355632544       -8.2105136795       -2.5091280499
    O        -8.2058031874        7.2317081126       -2.5097039531
    O         8.2042109702       -7.2322889099       -2.5109622852
    O        -7.1403278620       -8.2090985944        2.5090486520
    O         7.1396438152        8.2088636278        2.5095851057
    O         8.2054383469       -7.2321654391        2.5099425406
    O        -8.2042682898        7.2326985960        2.5113670429
    O         2.1035126127        6.2218766258        0.0001236505
    O        -2.1038615791       -6.2222368283        0.0004668736
    O        -6.2029768502        2.2973336161       -0.0003021770
    O         6.2026052402       -2.2979600258        0.0001013231
    O         4.3597339946        7.5907193521        0.0010652099
    O        -4.3600427057       -7.5908144642       -0.0002787533
    O        -7.7607672333        4.4405465694        0.0014892404
    O         7.7605704798       -4.4406360809       -0.0001120265
    O         2.2460244492        8.6111896470        1.3540048478
    O        -2.2463837772       -8.6143632305        1.3503970548
    O        -8.6090182910        2.3110442952        1.3516958447
    O         8.6103620145       -2.3112727976        1.3498976454
    O        -2.2450956413       -8.6102586963       -1.3542553176
    O         2.2450233617        8.6129412752       -1.3505762999
    O         8.6108428219       -2.3110284637       -1.3481313643
    O        -8.6134068535        2.3112095589       -1.3459717035
    O         1.3472928865       10.9884893560        0.0012610763
    O        -1.3472700109      -10.9891467276       -0.0026986840
    O       -10.9075077369        1.3513064185        0.0025738676
    O        10.9073335577       -1.3509395424        0.0017257788
    O         4.7444999570        9.7036020880        1.6931775330
    O        -4.7471050366       -9.7044815664        1.6901857211
    O        -9.8607632742        4.8536812626        1.7654357582
    O         9.8662025566       -4.8537380297        1.7616901301
    O        -4.7429042183       -9.6994978377       -1.6958549000
    O         4.7449393529        9.6996357760       -1.6926120423
    O         9.8612732774       -4.8554675714       -1.7632235933
    O        -9.8671635589        4.8557924840       -1.7591460353
    O         0.4359556656        6.6336473980        4.2716666550
    O        -0.4358708512       -6.6340296779        4.2133786611
    O        -6.5221269465        0.5903990111        4.2731356764
    O         6.5217882249       -0.5907614458        4.2723079743
    O         2.2517252741        8.5622305145        4.2462195070
    O        -2.2518424794       -8.5624975429        4.2321283536
    O        -8.5399593371        2.2931424009        4.2522845036
    O         8.5397183691       -2.2931077839        4.2439125746
    O        -0.0204696503        9.0073344106       -2.8987511111
    O         0.0184863139       -8.9985120632       -2.9077889053
    O        -8.8577842539       -0.0194833497       -2.9025929823
    O         8.8576456900        0.0181249485       -2.9046029262
    O         0.0215178277       -9.0061142023        2.8938362719
    O        -0.0198156569        8.9973792620        2.9041857931
    O         8.8434866193        0.0205674499        2.9093959231
    O        -8.8440780503       -0.0191885384        2.9111705695
    O        -1.6155567135       10.9636191679        4.2426266105
    O         1.6154814662      -10.9637511486        4.2393726822
    O       -10.9068373952       -1.4460822636        4.2511678516
    O        10.9064424753        1.4454904441        4.2497198443
    O         2.1618467425       10.7231407770       -2.5086857607
    O        -2.1627385538      -10.7196528975       -2.5114195253
    O       -10.6822221291        2.0768554362       -2.5068992322
    O        10.6795101005       -2.0779779636       -2.5079141757
    O        -2.1591169702      -10.7245056093        2.5097406647
    O         2.1600965240       10.7201898695        2.5122940971
    O        10.6781654365       -2.0753999248        2.5102620004
    O       -10.6764957114        2.0766583363        2.5111688755
   Si         8.0659175258        1.5306114210        0.0011250775
   Si        -8.0662735718       -1.5306157956        0.0012051133
   Si        -1.4624734638        8.1295952637        0.0007952667
   Si         1.4623862232       -8.1297325236       -0.0013637980
   Si         7.4698979226        3.5898688518        4.2536837407
   Si        -7.4699611887       -3.5898779681        4.2537786125
   Si        -3.4873023654        7.4148400542        4.2406149065
   Si         3.4874741565       -7.4149425417        4.2451358341
   Si         6.3093372831        5.3311284737        0.0015499133
   Si        -6.3094521444       -5.3313826935        0.0008969683
   Si        -5.3582709552        6.2198631133        0.0009900721
   Si         5.3583551782       -6.2198289000       -0.0001613149
   Si         4.6778005927        6.7275623987        4.2415027457
   Si        -4.6778995385       -6.7276899092        4.2381776523
   Si        -6.8438440265        4.6740774025        4.2521382475
   Si         6.8433916047       -4.6742016164        4.2377659862
   Si         2.7072125056        7.7503870074        0.0011352504
   Si        -2.7076440973       -7.7506231958       -0.0007484353
   Si        -7.7718614165        2.7979974752        0.0014886335
   Si         7.7715846345       -2.7981722039        0.0007055980
   Si         0.6261426480        8.2637211878        4.2490167006
   Si        -0.6261620992       -8.2641122995        4.2324816718
   Si        -8.1655815898        0.6868733335        4.2521120974
   Si         8.1652541099       -0.6869138596        4.2493223389
    H        -3.958              -4.012               1.866
    H        -3.207              -4.448               3.106
    O        -3.378              -3.850               2.496
  &END COORD
  &KIND H
   MASS 2.014101777
   BASIS_SET DZVP-GTH-PBE
   POTENTIAL GTH-PBE-q1
  &END KIND
  &KIND O
   BASIS_SET DZVP-GTH-PBE
   POTENTIAL GTH-PBE-q6
  &END KIND
  &KIND Si
   BASIS_SET DZVP-GTH-PBE
   POTENTIAL GTH-PBE-q4
  &END KIND
  &KIND Al
   BASIS_SET DZVP-MOLOPT-SR-GTH
   POTENTIAL GTH-PBE-q3
  &END KIND
 &END SUBSYS
&END FORCE_EVAL
&MOTION
 &MD
  ENSEMBLE NVT
  &THERMOSTAT
   TYPE CSVR
   &CSVR
    TIMECON 1000
   &END CSVR
  &END THERMOSTAT
  STEPS 2000
  TEMPERATURE 300
  TIMESTEP 0.5
 &END MD
 &PRINT
  &RESTART
   &EACH
    MD 32
   &END EACH
  &END RESTART
 &END PRINT
&END MOTION
