SimulationType                MonteCarlo
NumberOfCycles                100000
NumberOfEquilibrationCycles   200000
PrintEvery                    1
Movies                        yes
WriteMoviesEvery              1000

RestartFile					 no

ContinueAfterCrash no
WriteBinaryRestartFileEvery   1000


CutOff 8.0
CutOffChargeCharge 8.0
CutOffChargeBondDipole 8.0
CutOffBondDipoleBondDipole 8.0

RemoveAtomNumberCodeFromLabel yes
ChargeMethod                  Ewald
EwaldPrecision                1e-6

Framework                     0
FrameworkName                 FAU_SI
UnitCells                     1 1 1

ExternalTemperature           300.0
ExternalPressure              1e6

Component 0 MoleculeName             Tip4p
            MoleculeDefinition       Local
			FugacityCoefficient      0.005399612963685
            TranslationProbability   0.5
            RotationProbability      0.5
            SwapProbability          1.0
            CreateNumberOfMolecules  0

