SimulationType                MonteCarlo
NumberOfCycles                200000
NumberOfEquilibrationCycles   400000
PrintEvery                    1000
Movies                        yes
WriteMoviesEvery              1000

RestartFile					no 

ContinueAfterCrash no
WriteBinaryRestartFileEvery   1000


CutOff 8.0
CutOffChargeCharge 8.0
CutOffChargeBondDipole 8.0
CutOffBondDipoleBondDipole 8.0

RemoveAtomNumberCodeFromLabel yes
ChargeMethod                  Ewald
EwaldPrecision                1e-6

Framework                     0
FrameworkName                 CHA_SI_defect_0.50_per_cell_equilibrated
UnitCells                     1 1 1

ExternalTemperature           300.0
ExternalPressure              0.7001e8

Component 0 MoleculeName             Tip4p
            MoleculeDefinition       Local
			FugacityCoefficient      0.000127098049514
			TranslationProbability   0.5
            RotationProbability      0.5
            SwapProbability          1.0
            CreateNumberOfMolecules  0

