 # Version information for this restart file 
 # current date 2017-10-13 18:30:19.536
 # current working dir /gpfs5r/workgpfs/rech/drd/rdrd007/johannes/series/coi/opt-2500-atomonly-restart
 # Program compiled at                             Tue Oct  7 14:39:23 CEST 2014
 # Program compiled on                                                    ada337
 # Program compiled for                                 Linux-x86-64-gfortran.FL
 # Source code revision number                                         svn:13632
 &GLOBAL
   PRINT_LEVEL  MEDIUM
   PROJECT_NAME coi
   RUN_TYPE ENERGY
 &END GLOBAL
  &FORCE_EVAL
   &PROPERTIES
    &RESP
       USE_REPEAT_METHOD
       &SPHERE_SAMPLING
         AUTO_VDW_RADII_TABLE UFF
       &END
       #gaussian->(c3_c1h1n1@imid)|coi
       &CONSTRAINT
         EQUAL_CHARGES
         ATOM_LIST    1   2   3   4   5   6   7   8  13  14  15  16  17  18  19  20  25  26  27  28  29  30  31  32  37  38  39  40  41  42  43  44  49  50  51  52  53  54  55  56  61  62  63  64  65  66  67  68  73  74  75  76  77  78  79  80  85  86  87  88  89  90  91  92
       &END
       #gaussian->(n3_c2zn1@imid)|coi
       &CONSTRAINT
         EQUAL_CHARGES
         ATOM_LIST  193 194 195 196 197 198 199 200 201 202 203 204 205 206 207 208 209 210 211 212 213 214 215 216 217 218 219 220 221 222 223 224 225 226 227 228 229 230 231 232 233 234 235 236 237 238 239 240 241 242 243 244 245 246 247 248 249 250 251 252 253 254 255 256
       &END
       #gaussian->(c3_h1n2@imid)|coi
       &CONSTRAINT
         EQUAL_CHARGES
         ATOM_LIST    9  10  11  12  21  22  23  24  33  34  35  36  45  46  47  48  57  58  59  60  69  70  71  72  81  82  83  84  93  94  95  96
       &END
       #gaussian->(h1_c1@imid)|coi
       &CONSTRAINT
         EQUAL_CHARGES
         ATOM_LIST   97  98  99 100 101 102 103 104 109 110 111 112 113 114 115 116 121 122 123 124 125 126 127 128 133 134 135 136 137 138 139 140 141 142 143 144 149 150 151 152 153 154 155 156 161 162 163 164 169 170 171 172 173 174 175 176 181 182 183 184 185 186 187 188
       &END
       #gaussian->(zn4_n4@zn4tet)|coi
       &CONSTRAINT
         EQUAL_CHARGES
         ATOM_LIST  257 258 259 260 261 262 263 264 265 266 267 268 269 270 271 272
       &END
       #gaussian->(h1_c1S@imid)|coi
       &CONSTRAINT
         EQUAL_CHARGES
         ATOM_LIST  105 106 107 108 117 118 119 120 129 130 131 132 145 146 147 148 157 158 159 160 165 166 167 168 177 178 179 180 189 190 191 192
       &END
     &PRINT
       &COORD_FIT_POINTS
       &END
       &RESP_CHARGES_TO_FILE
       &END
       &V_RESP_CUBE
       &END
     &END
    &END RESP
   &END PROPERTIES
   METHOD  QS
   STRESS_TENSOR  DIAGONAL_ANALYTICAL
   &DFT
     BASIS_SET_FILE_NAME /home/jdurholt/sandbox/cp2k-data/BASIS_SET
     BASIS_SET_FILE_NAME /home/jdurholt/sandbox/cp2k-data/BASIS_MOLOPT
     POTENTIAL_FILE_NAME /home/jdurholt/sandbox/cp2k-data/POTENTIAL
     &SCF
       MAX_SCF  15000
       EPS_SCF     1.0000000000000001E-10
       SCF_GUESS  RESTART
       &OT  T
         MINIMIZER  DIIS
         PRECONDITIONER  FULL_SINGLE_INVERSE
       &END OT
       &MIXING  T
         METHOD  PULAY_MIXING
         ALPHA     5.0000000000000000E-01
         NBUFFER  5
       &END MIXING
       &PRINT
         &RESTART  LOW
         &END RESTART
       &END PRINT
     &END SCF
     &QS
       EPS_DEFAULT     1.0000000000000000E-10
     &END QS
     &MGRID
       NGRIDS  4
       CUTOFF     2.5000000000000000E+03
       REL_CUTOFF     1.0000000000000000E+02
     &END MGRID
     &XC
       DENSITY_CUTOFF     1.0000000000000000E-10
       GRADIENT_CUTOFF     1.0000000000000000E-10
       TAU_CUTOFF     1.0000000000000000E-10
       &XC_FUNCTIONAL  NO_SHORTCUT
         &PBE  T
         &END PBE
       &END XC_FUNCTIONAL
       &VDW_POTENTIAL
         POTENTIAL_TYPE  PAIR_POTENTIAL
         &PAIR_POTENTIAL
           R_CUTOFF     1.6000000000000000E+01
           TYPE  DFTD3
           PARAMETER_FILE_NAME /home/jdurholt/sandbox/cp2k-data/dftd3.dat
           REFERENCE_FUNCTIONAL PBE
         &END PAIR_POTENTIAL
       &END VDW_POTENTIAL
     &END XC
     &PRINT
       &V_HARTREE_CUBE
       &END
       &E_DENSITY_CUBE
       &END
     &END PRINT
   &END DFT
   &SUBSYS
     &CELL
       A     1.7223900791102082E+01    0.0000000000000000E+00    0.0000000000000000E+00
       B    -1.2143406811986058E+01    1.2214762767255754E+01    0.0000000000000000E+00
       C    -2.5114204064195396E+00   -6.1193712425276354E+00    1.5903107293861542E+01
       MULTIPLE_UNIT_CELL  1 1 1
     &END CELL
     &COORD
C   -1.3886382658880628E-01   -4.0255334348752803E-01    3.9436760830853146E-01
C    1.9979829391133863E-01    4.6128715184901359E-01   -3.9527999574601663E-01
C    3.5616623936724690E-01    4.6045528828448268E-01    2.3798840908339514E-01
C    2.0999533278732235E-01    1.0451270088882091E-01   -2.3781413816604652E-01
C   -5.1616061274346786E-02   -3.8919879162144488E-01    3.8433125288516762E-01
C    2.1898960911003085E-01   -4.4403326608850224E-01   -3.8584723972817864E-01
C    3.6424585490441613E-01    4.7886500007346222E-01    1.6214809767548916E-01
C    3.0679541180970665E-01    1.9378247637628576E-01   -1.6411236357192582E-01
C   -1.5333234516743513E-01   -4.2706508812557120E-01    2.6267012929415096E-01
C    3.1877055151760253E-01   -4.1276120798660820E-01   -2.6660675187489896E-01
C    3.2987384798532787E-01   -4.3393307199989933E-01    2.2692889343284112E-01
C    3.3433005560235474E-01    9.9471673204654304E-02   -2.2847153893821312E-01
C   -3.9507514875499927E-01   -4.5470427887519616E-01    1.0877184656642525E-01
C    4.6145991670381781E-01   -4.4809286589908753E-01   -1.1501580179346432E-01
C    3.2462016200299831E-01   -2.8857516904410851E-01    4.0701716335134341E-01
C    2.4524402546649268E-01   -1.4884892199941782E-01   -4.4094801789252058E-01
C   -4.2690569541738926E-01    4.7941652926011924E-01    2.8281519424611018E-02
C    4.7208156994882366E-01   -3.9797492806594842E-01   -3.7075261655753755E-02
C    2.5693205580521461E-01   -2.7807748016337253E-01    3.6846110773639623E-01
C    2.9431122252581954E-01   -1.7986122227392731E-01   -4.0619102560408676E-01
C   -4.3606974908636215E-01    3.9431222208518474E-01    1.1479336947884579E-01
C    2.8570427832986728E-01    4.4510414098599316E-01   -1.1171877321626114E-01
C    1.4560710110659245E-01   -4.6451313169380060E-01    3.3851996086868658E-01
C    2.0232549546287248E-01   -1.8384522881110316E-01   -3.2868555644182296E-01
C   -4.8477902770775072E-01    4.7574223009807526E-01    4.0128378030602785E-01
C    7.3922253488089396E-02    1.1636915724809718E-01   -3.9616401586090838E-01
C    2.2474612410490291E-01    3.2996451507300661E-01    4.5826157424200764E-01
C   -1.3644757502066335E-01   -2.3705415789717715E-01   -4.5898950552868595E-01
C    4.6544919280354380E-01    3.8978790595976204E-01    4.3707196441261181E-01
C   -4.7769753748170385E-02    3.2001689631931007E-02   -4.3022719938961274E-01
C    1.3893006622826554E-01    2.0815529300824001E-01    4.2297092462916586E-01
C   -2.2140207573706605E-01   -2.8754123621905131E-01   -4.2207608675046787E-01
C   -4.5330285631142631E-01    3.7702360213545494E-01    3.5777836002113284E-01
C    2.1832721654723358E-02    1.9256808846065890E-01   -3.4710779655531526E-01
C    1.2304606898253297E-01    2.7251437485521868E-01    3.2861527604094110E-01
C   -6.0927093513792191E-02   -2.0841584854439105E-01   -3.3014848533096292E-01
C    3.7203100602909733E-01    4.0830397949345731E-03    3.1880028612925609E-01
C   -3.2872261483861909E-01    5.5000597606103485E-02   -3.1965458552306314E-01
C   -2.5025229939323407E-01   -6.8656360320417276E-02    1.2973397643350593E-01
C   -1.9732094946604561E-01   -3.7506015557187383E-01   -1.1937676878287626E-01
C    4.0978255067311797E-01   -2.8194767547383009E-02    2.7093622427764663E-01
C   -3.0831233731878677E-01    1.4399392169828060E-01   -2.7145029398777454E-01
C   -2.8221142616181066E-01   -5.3304889106825612E-02    5.9528757898162803E-02
C   -1.0857127450217008E-01   -3.3453474860030447E-01   -5.0955380436860299E-02
C   -4.3938699388206820E-01    1.5768572529704841E-01    3.5004954978544922E-01
C   -1.8332795373496660E-01    2.1800966587658022E-01   -3.3677985164333091E-01
C   -9.4983079901012415E-02    5.8227763480335294E-02    9.7571999101871143E-02
C   -3.5284910881394793E-02   -1.9322459747518400E-01   -9.9371797785910404E-02
C    1.2107420519418600E-01   -3.7746021125722812E-02    4.4088940390596310E-01
C   -5.0068290621175460E-01   -3.1635665669573354E-01   -4.3213268040513803E-01
C   -2.8867739653522001E-01   -2.3074497397814653E-01    3.3847524539200258E-01
C    4.3108140608250350E-01    3.6057014858249237E-01   -3.2326806136252473E-01
C    2.0498490397059374E-01    3.2222663658573875E-02    4.0526314912930861E-01
C   -3.9671533566701428E-01   -1.9676303615020796E-01   -3.9254125785718719E-01
C   -2.2063895483276297E-01   -1.2557885182574482E-01    3.2414470548937363E-01
C   -4.4892717303889834E-01    4.4228663546519065E-01   -3.0648895981739577E-01
C    2.9523874539974188E-01    7.9943461813442196E-02   -4.6408177840416576E-01
C   -4.4349086733870957E-01   -2.3936415545665307E-01    4.7138118598791745E-01
C   -1.6454911015718263E-01   -2.0191005443737420E-01    2.8705068007926987E-01
C   -4.9346805682512296E-01   -4.6595607751218920E-01   -2.9923940506255259E-01
C   -2.1277974891606646E-01    4.9033012932555453E-01   -3.4412146984058684E-01
C   -1.6618627486868806E-01    1.3414431421910311E-01    3.5501262468792594E-01
C    2.3901347959379343E-01    8.9745412342412290E-02    1.9841260665380381E-01
C   -1.2766232343669498E-01    2.3970247892508845E-02   -2.0474131672366280E-01
C   -2.9828121035089167E-01    4.4629040728969904E-01   -4.1756695005448030E-01
C   -1.3664063000102300E-01    1.2206716428282076E-01    4.2838440573931857E-01
C    1.9569731423097575E-01    1.2005984245939885E-01    2.4014686559948026E-01
C   -1.4170317165827104E-01   -6.2660565006833549E-02   -2.4755640433516565E-01
C   -3.5175397782730999E-01    2.9850929145998450E-01   -3.8817580531805318E-01
C   -3.1635491404393756E-01    3.2934868899384878E-02    3.9641620463781557E-01
C    4.7540756072586024E-02   -6.0564999882250267E-02    1.5054991833934753E-01
C   -2.2071057102108349E-01   -1.1413491194911957E-01   -1.5112843283479485E-01
C    6.6018164170913607E-02   -3.4526956910632206E-01   -1.4063177066501625E-01
C   -2.0569455436741113E-01    2.0159642895165197E-01    1.4933648934540669E-01
C    4.0193084939674967E-01    4.5489179629052544E-02    8.8238496008121697E-02
C   -4.9637614408919166E-02    3.0362472731996776E-01   -9.0171941819444920E-02
C    1.8064230069031273E-01   -2.5728475114803584E-01   -1.3867224159808289E-01
C   -1.2003303242612864E-01    3.1249688816452781E-01    1.4455353660006304E-01
C    4.9044075763192674E-01    1.3119099762326888E-01    6.1755202378879201E-02
C    6.1892987998827698E-02    4.1851406132714913E-01   -6.6187040243668407E-02
C    9.3518066173914782E-02   -4.2489442530066707E-01   -2.2613892699025429E-01
C   -1.9912811330817165E-01    3.1797577184197323E-01    2.3074255707909397E-01
C    3.2363088683722918E-01    5.1823491012993932E-02   -1.9108295939713402E-02
C    6.8438111489400155E-02    3.3654547795544471E-01    1.6254358003942811E-02
C   -2.3622779755192291E-01    3.8585816881102408E-01   -1.0561828126699608E-02
C    3.9944127316201461E-01   -2.1892533684445270E-01    1.4500527888470068E-02
C    1.3465481726692424E-01   -3.5239416281339087E-01    1.1821465209361054E-01
C   -4.7198917517495093E-01    1.4427884581914671E-02   -1.2032162964279364E-01
C   -1.5794080568814742E-01    4.2047343132214893E-01   -5.1583504006958769E-02
C    4.7672488551652398E-01   -9.9882776143366839E-02    5.8240091790991690E-02
C    1.7127016027936390E-01   -2.7387937409386759E-01    7.7097484597393448E-02
C   -3.5351440112718924E-01    9.0279696323799230E-02   -7.5969460189715690E-02
C   -3.2211732567599444E-01    3.3417090353760548E-01   -1.4376513339459485E-01
C    4.6922537243452878E-01   -1.8063488522508220E-01    1.4801445489899182E-01
C    7.5200740372329239E-02   -2.7809355135719349E-01    1.5008629946134028E-01
C   -4.2919592663267064E-01   -7.6278935322651939E-02   -1.5338686483825276E-01
H    2.8406124788185128E-01   -4.7548751509112586E-02    3.2002819854436726E-01
H   -3.9375817958099918E-01   -3.7921069984146349E-02   -3.2726891744616365E-01
H   -3.0277576512998283E-01   -1.2332676295209972E-01    1.6494632218185656E-01
H   -2.8976786764535994E-01   -4.6102895244104380E-01   -1.4837702064423833E-01
H    3.6011736571850916E-01   -1.1294569275335999E-01    2.2390691457591017E-01
H   -3.5136895425777909E-01    1.4143704186620090E-01   -2.2919689709988386E-01
H   -3.6736639838750873E-01   -9.2737685306766182E-02    2.3380991096537237E-02
H   -1.1088824103765708E-01   -3.8012822271090085E-01   -1.1509159130233324E-02
H   -3.4925374390713249E-01    2.4698151240180086E-01    3.8085812035514588E-01
H   -1.1382680910545448E-01    2.7967936264026438E-01   -3.6047471403874093E-01
H   -4.8032239280339367E-03    1.1914726452439689E-01    9.8253880617742512E-02
H    2.5919478335987137E-02   -1.0699624850126548E-01   -1.0591800230515716E-01
H    2.5199252013235335E-02   -1.0670648408946173E-01    4.1336661909214817E-01
H    4.4244509638795926E-01   -3.8377595922642005E-01   -4.0564418186620788E-01
H   -3.5999426962311387E-01   -2.7532199188784423E-01    3.6316164801671436E-01
H    3.6414161564164982E-01    2.6577543971514034E-01   -3.3715459638781281E-01
H    1.9517094636418134E-01    3.6775900777715059E-02    3.4233975847942594E-01
H   -3.4397341347889099E-01   -1.4292949358522081E-01   -3.2570734441879678E-01
H   -2.1988616663102240E-01   -6.0748786618459671E-02    3.3636022616883765E-01
H   -3.9413094493459466E-01    4.3059537244255092E-01   -3.0631479828559993E-01
H    3.6498390116677992E-01    1.2268146638072905E-01   -4.0456173677457202E-01
H   -4.4276381069694232E-01   -2.2988366944704450E-01    4.0980087071522164E-01
H   -1.1806088953072172E-01   -2.1551053772017578E-01    2.6268638002775668E-01
H   -4.8481388354004074E-01   -3.9541123329726158E-01   -2.8954065650741284E-01
H   -1.3078856496576449E-01   -4.1875977796986696E-01   -3.0365679732662149E-01
H   -1.1493726090873441E-01    1.7764369338204941E-01    3.1538622767964908E-01
H    3.2964811846068270E-01    1.4095530880091525E-01    2.0535020253596387E-01
H   -8.6705326015933074E-02    1.0570636862348128E-01   -2.1382969737553731E-01
H   -3.0405351297327660E-01    4.9259549065272623E-01   -4.5062518011950781E-01
H   -5.5754208304607977E-02    1.5257700963910517E-01    4.6272680922801102E-01
H    2.4243145059853830E-01    2.0160531564134238E-01    2.8998058851252972E-01
H   -1.1638222990866878E-01   -6.9352951665127380E-02   -3.0080559563266890E-01
H   -4.0075968616744301E-01    2.0889367908435888E-01   -3.9291213771616884E-01
H   -4.0288466500657377E-01   -1.5109698151704071E-02    3.9956053548246573E-01
H   -4.2267913397919618E-02   -1.4720163175718995E-01    1.1247915629476198E-01
H   -2.6374695354125899E-01   -1.6250083809100241E-01   -1.0990658413598010E-01
H    1.9690596990969568E-02   -3.4051706059856057E-01   -1.0670142003972047E-01
H   -2.3489537568286867E-01    1.2054142883262925E-01    1.1806484589504193E-01
H    4.0609315911012139E-01    1.6634973159544167E-02    1.3962301875511693E-01
H   -1.3162351390576077E-01    2.5505749709804243E-01   -1.4011304796575860E-01
H   -1.5936592155876469E-01   -3.9641019403755640E-01    4.5073637028332619E-01
H    1.4605100665980469E-01    3.8169450151438644E-01   -4.5021273514196397E-01
H    3.6427729948575538E-01    4.1206114977138097E-01    2.6541050081827111E-01
H    1.3036836923002212E-01    7.9543683623889500E-02   -2.6417493083949739E-01
H    2.5096933489481338E-01   -1.6302537718907834E-01   -1.0155228459865205E-01
H   -6.2990078495322316E-02    3.4323982690382820E-01    1.0747924177008039E-01
H   -4.1542914324401498E-01    1.8804295435654195E-01    8.6006141179034309E-02
H    9.2457177436341395E-02    4.8670157448266516E-01   -9.1878972584462260E-02
H    7.8027349964013726E-02   -4.8936468486721585E-01   -2.7290425310015576E-01
H   -2.1666518656271030E-01    3.5140662663768996E-01    2.7582144794233959E-01
H    2.5970690724147077E-01    3.4468017149928892E-02   -6.8212488207207961E-02
H    1.0258975931559680E-01    3.2413638861164656E-01    6.5826122067140821E-02
H   -2.2466752989906397E-01    3.9618392778469297E-01    5.5870890079110488E-02
H    3.4773283966838020E-01   -2.7012456319823297E-01   -5.2871543253493060E-02
H    1.4780597158633799E-01   -4.0618726496371022E-01    1.1745674126362921E-01
H    4.7519939885650420E-01    2.8648842849921134E-02   -1.1971131445842059E-01
H   -6.7521977416923229E-02    4.6651245929188478E-01   -2.6587560150877935E-02
H    5.0352908072681302E-01   -3.1160289134551884E-02    3.4935157118642840E-02
H    2.2162413383930868E-01   -2.4816734817193753E-01    3.5357800903127248E-02
H   -2.8686295017219121E-01    1.8095032927093349E-01   -3.1596292469897640E-02
H   -3.8765206088405774E-01    2.9923607191435608E-01   -2.0321129487465986E-01
H    4.8697331807511679E-01   -1.9153985505926069E-01    2.0692324497614281E-01
H    3.5729949133209260E-02   -2.5809403911218093E-01    1.7895985693483971E-01
H   -4.3739461180397332E-01   -1.4374277035148258E-01   -1.8341564489453488E-01
H    1.6848901135386007E-02   -3.6874957022758265E-01    4.3041811367938504E-01
H    1.8548573679493563E-01   -4.2710534131762151E-01   -4.3120996399369366E-01
H    3.8203036993391415E-01    4.5062545258243303E-01    1.1325822287708912E-01
H    3.2567880547409950E-01    2.5964893479361661E-01   -1.1589738236631414E-01
H   -1.8563503580797475E-01   -4.4554513402940504E-01    1.9536445846268927E-01
H    3.7464694656093256E-01   -3.7276000234553713E-01   -2.0053755090411374E-01
H    3.1201950682759877E-01   -3.8448876470048277E-01    2.4089578501467232E-01
H    3.7306249934388097E-01    7.1286093815346785E-02   -2.4239571642145930E-01
H   -3.6918888648608145E-01   -3.7383728602868188E-01    1.3119028608777433E-01
H   -4.7098721763856932E-01   -4.2094488946880315E-01   -1.4024826802751403E-01
H    4.1749363094342334E-01   -2.2090256132851677E-01    4.4699690403828396E-01
H    2.4705692610601196E-01   -1.2547297305174307E-01   -4.9698161163009091E-01
H   -4.3389993014420297E-01   -5.0671395825929755E-01   -3.1262464536970153E-02
H   -4.4931892685461183E-01   -3.1865126439855845E-01    1.6513386183880097E-02
H    2.8169807139861602E-01   -1.9951661346282584E-01    3.6804043803145964E-01
H    3.4539259326819971E-01   -1.8880507561408896E-01   -4.2750930282327781E-01
H   -4.4998736507025083E-01    3.3115888634920027E-01    1.3875537129813387E-01
H    1.8984629619710003E-01    3.7622105127593658E-01   -1.3036827804638798E-01
H    6.8544190658424597E-02    4.3956882140776921E-01    3.1147093591677943E-01
H    1.6634633637385959E-01   -1.9499402107411773E-01   -2.7850043721045359E-01
H   -4.8261939298786716E-01   -4.5836997036550670E-01    4.0863224281826599E-01
H    1.3152106171809017E-01    1.1073067015172411E-01   -4.0595603902837329E-01
H    2.9212542793579899E-01    3.8962952022208736E-01   -4.7865316849991074E-01
H   -1.4190391873774541E-01   -2.3387745193542972E-01    4.7754845011620584E-01
H    4.1777043590635121E-01    3.6869248229043250E-01    4.8032871867669474E-01
H   -1.1325891835394564E-01   -5.8565625277460398E-02   -4.7447294952592989E-01
H    1.1940562842496573E-01    1.4476486050222176E-01    4.4993837217062338E-01
H   -3.1230156040430923E-01   -3.3506811157019889E-01   -4.4772940442522596E-01
H   -4.2206101983149757E-01    3.4852937975000320E-01    3.2615631793149397E-01
H    2.6773357687754629E-02    2.5589146224644449E-01   -3.1299152509347328E-01
H    9.3090624705866376E-02    2.7454475177288418E-01    2.6893259609514308E-01
H    2.1467824765324106E-03   -1.7847484063875929E-01   -2.7135637887240494E-01
N   -2.0298978933728443E-01   -4.2653110852706022E-01    3.1682674496863372E-01
N    2.6376490660422780E-01    4.8200787356358510E-01   -3.1939590936963852E-01
N    3.3465245399106164E-01   -4.8362881937788804E-01    2.7883563665339200E-01
N    2.2826913865388249E-01    4.5161058526306891E-02   -2.7832533262758741E-01
N   -6.1415411622488175E-02   -4.0479248847635374E-01    3.0048570288765075E-01
N    2.9469977563414029E-01   -3.6443570557969140E-01   -3.0393300057828460E-01
N    3.4751944884455171E-01   -4.5391179660506265E-01    1.5570022902058872E-01
N    3.8538440523129974E-01    1.8995875840775703E-01   -1.5869545503066718E-01
N   -4.0098339875299588E-01   -5.0940093486768911E-01    1.6327339690962334E-01
N    3.4264317451998838E-01    4.5214780543505034E-01   -1.6208250677299743E-01
N    2.5313854048898876E-01   -4.0741423141699984E-01    3.8763057797306166E-01
N    1.8719045903998505E-01   -1.5145468762516889E-01   -3.9116143017786165E-01
N   -4.5266602245463139E-01    3.8385647426993241E-01    3.2811030416483901E-02
N    3.6005163546693769E-01   -4.6657092190566790E-01   -3.5527198066102980E-02
N    1.4338572638577216E-01   -3.9022506670901891E-01    3.2534749772275351E-01
N    2.6663382389374357E-01   -2.0178959498384372E-01   -3.3493801442557325E-01
N   -4.3326818963158398E-01    4.6688340227881275E-01    3.5101984879800086E-01
N    1.1724157072473720E-01    2.1802169267493396E-01   -3.4334144367731517E-01
N    2.1376933196103032E-01    3.6998306632445188E-01    3.9781765766500632E-01
N   -3.4805474740892989E-02   -1.8700104064921694E-01   -3.9994352840176384E-01
N    4.8578217443241045E-01    3.2769273056799769E-01    4.0872855194630675E-01
N   -7.9659807671873167E-02    8.1364128037904493E-02   -3.9848948883037394E-01
N    7.4941721050363425E-02    1.7285260144714931E-01    3.4082773670120753E-01
N   -1.7239102920866026E-01   -2.6902427174691124E-01   -3.4051961720067137E-01
N    4.6834012564327354E-01    1.2201288817046321E-01    3.6892874251579860E-01
N   -2.4898176217432222E-01    1.0271006661478529E-01   -3.6087081207574662E-01
N   -1.3142587058059907E-01    2.2194072674435184E-03    1.5325756334970367E-01
N   -1.5013211280431718E-01   -2.8493331098030500E-01   -1.4977507367823836E-01
N   -4.7035284193655247E-01    7.0159265402617604E-02    2.9089984452677015E-01
N   -2.1545514003224775E-01    2.4734904573336558E-01   -2.8246979976656073E-01
N   -1.8279007808794440E-01    2.7976715318701210E-02    3.9854519378624442E-02
N   -5.7587897860973160E-03   -2.1902298815691873E-01   -3.8889123126376816E-02
N    3.1515200518919878E-01    1.0648086118512848E-01    4.6625712544851566E-01
N   -3.6136548454705231E-01   -1.4868072683637668E-01   -4.5449557114318262E-01
N   -1.4215035405644522E-01   -1.0825719066755504E-01    2.9150534559943575E-01
N   -4.0188779843059608E-01   -4.4772882256464541E-01   -2.9101830277981477E-01
N    1.7933097785392763E-01   -6.4289265626785719E-03   -4.7612742113666839E-01
N    4.7075326428556635E-01   -3.4273112561133434E-01    4.8153976219597600E-01
N   -2.5206879578136621E-01   -2.7810727341404695E-01    3.1514334717883291E-01
N    4.0347626517288704E-01    4.1956195706594812E-01   -3.1889486959459201E-01
N   -2.4731219013512026E-01    3.9608019437999931E-01   -3.2598994290829852E-01
N   -2.8028166196256998E-01    7.7451660637224348E-02    3.3519520262783981E-01
N    1.4451576554569245E-01   -2.4833401997915686E-02    1.4170302943385457E-01
N   -1.7789240709569043E-01   -9.2797896450011602E-03   -1.4361481628590708E-01
N   -3.8644707479018003E-01    3.2436347527531056E-01   -4.4496923180024484E-01
N   -2.3277722974061602E-01    5.7133295040764615E-02    4.5414541425378646E-01
N    7.3880957439261472E-02    2.3818525667679627E-02    2.0957405561788298E-01
N   -2.0134340282282187E-01   -1.5036324453162267E-01   -2.1334654437045522E-01
N    1.1498665397304889E-02   -4.5143407123782009E-01   -1.9613669172407133E-01
N   -2.5561910940887739E-01    2.0579989163049395E-01    2.0406865614066519E-01
N    2.9624522674784937E-01   -4.6929157349937141E-03    3.6364105511783117E-02
N   -4.4705695160437868E-02    2.5231323750949702E-01   -3.7406478179836902E-02
N    1.9737600441328515E-01   -3.0876509493232107E-01   -1.9297487570380609E-01
N   -1.1668641432120511E-01    3.8574474842627221E-01    1.9624521558257349E-01
N    4.3982144381626537E-01    1.3434249900384532E-01   -6.6026175855995340E-03
N    1.3618381853504630E-01    4.3875527233491490E-01    1.5763674908744665E-03
N   -2.1333573762464986E-01    3.8731777994843347E-01   -1.3600816506305782E-01
N   -4.7941791819859181E-01   -7.6511280771949311E-02    1.4290135187157163E-01
N    1.3318816688757848E-01   -2.2714185852887703E-01    9.7828191079192495E-02
N   -3.2735807886203760E-01    3.1806038545278331E-02   -9.7463188738355661E-02
N   -3.4036942329760117E-01    3.3086510360238253E-01   -6.9746725539504464E-02
N    3.9506038699672474E-01   -2.6947698452009278E-01    7.2140355144983334E-02
N    7.3347384287136594E-02   -3.5474353495018313E-01    1.6416179170581799E-01
N    4.8071574002853990E-01   -9.1236688996195831E-02   -1.6920836396088287E-01
Zn    4.6916242538815617E-01    2.1749340479107990E-01    4.5197245173162026E-01
Zn   -2.3420926482883581E-01    1.9936685853599034E-02   -4.4019502566262081E-01
Zn   -3.3551732452193020E-02    1.8349793639592590E-02    2.4843762262702931E-01
Zn   -2.3473079333465247E-01   -2.9090911869075853E-01   -2.4779013421345397E-01
Zn   -1.5884448014601243E-01    3.9927387250894691E-01   -2.3296785021338443E-01
Zn   -3.6981952426241932E-01    7.3259847576135656E-02    2.4192442609640499E-01
Zn    1.4598890359702676E-01   -1.1698289543538908E-01    5.6640192348929475E-02
Zn   -1.7818725873015884E-01    8.2060599350419469E-02   -5.6373124595872057E-02
Zn   -4.8612251269968088E-01    2.6353561279978632E-01   -5.3574874079173183E-02
Zn    3.1234751852732706E-01   -4.3231810083090327E-01    5.0618545438416755E-02
Zn    9.8458781247516419E-03   -4.3795893159968624E-01    2.4351138215007526E-01
Zn    3.1855287133402654E-01   -2.3564666878418189E-01   -2.4792072278817379E-01
Zn   -3.3125040635234948E-01   -4.3989978616017456E-01    2.8910255212084429E-01
Zn    2.7577864524406626E-01    3.8070623616693933E-01   -2.8853494800930085E-01
Zn    3.1403133827566110E-01   -4.7295655080040355E-01    3.9131819261067879E-01
Zn    1.2830251960780242E-01   -8.4522641563702636E-02   -3.9305821153272713E-01
       SCALED  T
     &END COORD
     &KIND C
       BASIS_SET DZVP-GTH-PBE
       POTENTIAL GTH-PBE-q4
     &END KIND
     &KIND H
       BASIS_SET DZVP-GTH-PBE
       POTENTIAL GTH-PBE-q1
     &END KIND
     &KIND N
       BASIS_SET DZVP-GTH-PBE
       POTENTIAL GTH-PBE-q5
     &END KIND
     &KIND Zn
       BASIS_SET DZVP-MOLOPT-SR-GTH
       POTENTIAL GTH-PBE-q12
     &END KIND
     &TOPOLOGY
       NUMBER_OF_ATOMS  272
       MULTIPLE_UNIT_CELL  1 1 1
     &END TOPOLOGY
   &END SUBSYS
 &END FORCE_EVAL
