 # Version information for this restart file 
 # current date 2017-10-14 00:21:35.912
 # current working dir /gpfs5r/workgpfs/rech/drd/rdrd007/johannes/series/nog/opt-2500-atomonly-restart
 # Program compiled at                             Tue Oct  7 14:39:23 CEST 2014
 # Program compiled on                                                    ada337
 # Program compiled for                                 Linux-x86-64-gfortran.FL
 # Source code revision number                                         svn:13632
 &GLOBAL
   PRINT_LEVEL  MEDIUM
   PROJECT_NAME nog
   RUN_TYPE ENERGY
 &END GLOBAL
  &FORCE_EVAL
   &PROPERTIES
    &RESP
       USE_REPEAT_METHOD
       &SPHERE_SAMPLING
         AUTO_VDW_RADII_TABLE UFF
       &END
       #gaussian->(c3_c1h1n1@imid)|nog
       &CONSTRAINT
         EQUAL_CHARGES
         ATOM_LIST    1   2   3   4   5   6   7   8  13  14  15  16  17  18  19  20  25  26  27  28  29  30  31  32  41  42  43  44  45  46  47  48  53  54  55  56  57  58  59  60  65  66  67  68  69  70  71  72  77  78  79  80  81  82  83  84  89  90  91  92  93  94  95  96 101 102 103 104 105 106 107 108 113 114 115 116 117 118 119 120
       &END
       #gaussian->(h1_c1S@imid)|nog
       &CONSTRAINT
         EQUAL_CHARGES
         ATOM_LIST  129 130 131 132 141 142 143 144 153 154 155 156 169 170 171 172 181 182 183 184 193 194 195 196 209 210 211 212 213 214 215 216 225 226 227 228 237 238 239 240
       &END
       #gaussian->(c3_h1n2@imid)|nog
       &CONSTRAINT
         EQUAL_CHARGES
         ATOM_LIST    9  10  11  12  21  22  23  24  33  34  35  36  37  38  39  40  49  50  51  52  61  62  63  64  73  74  75  76  85  86  87  88  97  98  99 100 109 110 111 112
       &END
       #gaussian->(n3_c2zn1@imid)|nog
       &CONSTRAINT
         EQUAL_CHARGES
         ATOM_LIST  241 242 243 244 245 246 247 248 249 250 251 252 253 254 255 256 257 258 259 260 261 262 263 264 265 266 267 268 269 270 271 272 273 274 275 276 277 278 279 280 281 282 283 284 285 286 287 288 289 290 291 292 293 294 295 296 297 298 299 300 301 302 303 304 305 306 307 308 309 310 311 312 313 314 315 316 317 318 319 320
       &END
       #gaussian->(zn4_n4@zn4tet)|nog
       &CONSTRAINT
         EQUAL_CHARGES
         ATOM_LIST  321 322 323 324 325 326 327 328 329 330 331 332 333 334 335 336 337 338 339 340
       &END
       #gaussian->(h1_c1@imid)|nog
       &CONSTRAINT
         EQUAL_CHARGES
         ATOM_LIST  121 122 123 124 125 126 127 128 133 134 135 136 137 138 139 140 145 146 147 148 149 150 151 152 157 158 159 160 161 162 163 164 165 166 167 168 173 174 175 176 177 178 179 180 185 186 187 188 189 190 191 192 197 198 199 200 201 202 203 204 205 206 207 208 217 218 219 220 221 222 223 224 229 230 231 232 233 234 235 236
       &END
     &PRINT
       &COORD_FIT_POINTS
       &END
       &RESP_CHARGES_TO_FILE
       &END
       &V_RESP_CUBE
       &END
     &END
    &END RESP
   &END PROPERTIES
   METHOD  QS
   STRESS_TENSOR  DIAGONAL_ANALYTICAL
   &DFT
     BASIS_SET_FILE_NAME /home/jdurholt/sandbox/cp2k-data/BASIS_SET
     BASIS_SET_FILE_NAME /home/jdurholt/sandbox/cp2k-data/BASIS_MOLOPT
     POTENTIAL_FILE_NAME /home/jdurholt/sandbox/cp2k-data/POTENTIAL
     &SCF
       MAX_SCF  20000
       EPS_SCF     1.0000000000000001E-10
       SCF_GUESS  RESTART
       &OT  T
         MINIMIZER  DIIS
         PRECONDITIONER  FULL_SINGLE_INVERSE
       &END OT
       &MIXING  T
         METHOD  PULAY_MIXING
         ALPHA     5.0000000000000000E-01
         NBUFFER  5
       &END MIXING
       &PRINT
         &RESTART  LOW
         &END RESTART
       &END PRINT
     &END SCF
     &QS
       EPS_DEFAULT     1.0000000000000000E-10
     &END QS
     &MGRID
       NGRIDS  4
       CUTOFF     2.0000000000000000E+03
       REL_CUTOFF     1.0000000000000000E+02
     &END MGRID
     &XC
       DENSITY_CUTOFF     1.0000000000000000E-10
       GRADIENT_CUTOFF     1.0000000000000000E-10
       TAU_CUTOFF     1.0000000000000000E-10
       &XC_FUNCTIONAL  NO_SHORTCUT
         &PBE  T
         &END PBE
       &END XC_FUNCTIONAL
       &VDW_POTENTIAL
         POTENTIAL_TYPE  PAIR_POTENTIAL
         &PAIR_POTENTIAL
           R_CUTOFF     1.6000000000000000E+01
           TYPE  DFTD3
           PARAMETER_FILE_NAME /home/jdurholt/sandbox/cp2k-data/dftd3.dat
           REFERENCE_FUNCTIONAL PBE
         &END PAIR_POTENTIAL
       &END VDW_POTENTIAL
     &END XC
     &PRINT
       &V_HARTREE_CUBE
       &END
       &E_DENSITY_CUBE
       &END
     &END PRINT
   &END DFT
   &SUBSYS
     &CELL
       A     2.4464992755856453E+01    0.0000000000000000E+00    0.0000000000000000E+00
       B     0.0000000000000000E+00    9.6041340041120353E+00    0.0000000000000000E+00
       C    -2.3665204675921018E+01    0.0000000000000000E+00    2.5207677875619961E+01
       MULTIPLE_UNIT_CELL  1 1 1
       SYMMETRY  MONOCLINIC
     &END CELL
     &COORD
C   -3.8157837247738929E-01   -2.4564360598852020E-01    2.9081360238437004E-01
C    3.8158436226802472E-01    2.5435657100269699E-01    2.0918910370650506E-01
C    3.8157837314752729E-01    2.4564360764932391E-01   -2.9081360364188297E-01
C   -3.8158436357151582E-01   -2.5435657132972106E-01   -2.0918910374216629E-01
C   -4.1989376934962747E-01   -3.6297102704381268E-01    2.5903273989640541E-01
C    4.1989986274187335E-01    1.3702905489887560E-01    2.4096986306407261E-01
C    4.1989377026775387E-01    3.6297102471178438E-01   -2.5903273856536257E-01
C   -4.1989986248597588E-01   -1.3702905511087871E-01   -2.4096986334262221E-01
C    5.0021175240906413E-01   -2.2478933072413640E-01    2.4932179662645151E-01
C   -5.0020573845966687E-01    2.7521154449196006E-01    2.5068098234286218E-01
C   -5.0021175323061584E-01    2.2478933184221545E-01   -2.4932179746148850E-01
C    5.0020574083846425E-01   -2.7521154362973604E-01   -2.5068098103905584E-01
C   -2.9462205220317927E-01    2.4752005534647764E-01    3.6432384523965738E-01
C    2.9462815288260480E-01   -2.5247808292884000E-01    1.3567802598564227E-01
C    2.9462205602760122E-01   -2.4752005849493214E-01   -3.6432384261662071E-01
C   -2.9462815289312128E-01    2.5247808656100629E-01   -1.3567802732279854E-01
C   -2.5113450246072733E-01    2.9948392656733391E-01    3.5514072755974302E-01
C    2.5114019830960332E-01   -2.0051305159055288E-01    1.4486064033758606E-01
C    2.5113450782882701E-01   -2.9948393030748571E-01   -3.5514072362916704E-01
C   -2.5114019873861704E-01    2.0051304862074507E-01   -1.4486064107690935E-01
C   -3.1032463540289157E-01    1.1414684845214294E-01    3.0610653614396094E-01
C    3.1032929822603561E-01   -3.8585039578571217E-01    1.9389493169023958E-01
C    3.1032464552539851E-01   -1.1414686882577736E-01   -3.0610652964011059E-01
C   -3.1032930065783215E-01    3.8585038671083166E-01   -1.9389493295975202E-01
C   -2.0053383169964537E-01   -2.4464509932223363E-02    2.5101742907694996E-01
C    2.0053619598543729E-01    4.7553778649585327E-01    2.4898118304096473E-01
C    2.0053383289081469E-01    2.4464506341180442E-02   -2.5101742740757649E-01
C   -2.0053619659025981E-01   -4.7553778772234290E-01   -2.4898118330931052E-01
C   -2.3690990212428265E-01   -1.4123642294760475E-01    2.1843864522026046E-01
C    2.3691184723363198E-01    3.5876604181425992E-01    2.8156013509646527E-01
C    2.3690990150272556E-01    1.4123642261318478E-01   -2.1843864531737850E-01
C   -2.3691184691161529E-01   -3.5876604076162361E-01   -2.8156013411389980E-01
C   -3.2157829311470454E-01    6.1705932877216168E-03    1.9751638498369209E-01
C    3.2158085411725745E-01   -4.9382524258727528E-01    3.0248431166023487E-01
C    3.2157829453596176E-01   -6.1705984392377792E-03   -1.9751638272327474E-01
C   -3.2158085235970424E-01    4.9382524542352280E-01   -3.0248430949237182E-01
C   -1.0908861262673469E-01    3.5487238535602211E-01    2.9004181068703772E-01
C    1.0908966221517345E-01   -1.4512559141699152E-01    2.0995577371065244E-01
C    1.0908861472808601E-01   -3.5487238551892208E-01   -2.9004180948846114E-01
C   -1.0908966006339146E-01    1.4512559183907456E-01   -2.0995577158298437E-01
C    4.9154947835744367E-01   -1.2771109432421840E-01    1.4247375297010079E-01
C   -4.9154599358228129E-01    3.7229185379849422E-01    3.5752792289184337E-01
C   -4.9154947737468446E-01    1.2771109524213814E-01   -1.4247375250222954E-01
C    4.9154599435159496E-01   -3.7229185295190759E-01   -3.5752792285287688E-01
C    4.3659761637321781E-01   -2.4530448075458511E-02    1.1755518516038849E-01
C   -4.3659425285201547E-01    4.7547277283405348E-01    3.8244667899122020E-01
C   -4.3659761624976678E-01    2.4530447539772491E-02   -1.1755518495143609E-01
C    4.3659425352752601E-01   -4.7547277163127277E-01   -3.8244667871514032E-01
C    4.6974361343647208E-01   -5.2749301443267164E-02    7.3225756114341511E-02
C   -4.6974145557196934E-01    4.4725418432165009E-01    4.2677534940389178E-01
C   -4.6974361115413749E-01    5.2749300375056062E-02   -7.3225755290474329E-02
C    4.6974145406485440E-01   -4.4725418279470613E-01   -4.2677534977433396E-01
C   -4.7743629054587999E-01   -3.1921049346048153E-01    1.8977285749291289E-02
C    4.7743667467303447E-01    1.8078942963192829E-01    4.8102235261032356E-01
C    4.7743628886906819E-01    3.1921048863797835E-01   -1.8977286425337789E-02
C   -4.7743667292179287E-01   -1.8078942915776619E-01   -4.8102235195656584E-01
C   -4.6662244976602102E-01   -2.9895495245212989E-01   -1.5282750903284965E-02
C    4.6662171599916064E-01    2.0104218766161702E-01   -4.8471812250345947E-01
C    4.6662245286893955E-01    2.9895495439627318E-01    1.5282753242759461E-02
C   -4.6662171459097557E-01   -2.0104219162789402E-01    4.8471812300261052E-01
C   -3.7507869305056712E-01   -1.9683616900863909E-01    6.0372240582991725E-02
C    3.7507883820036353E-01    3.0316321739555224E-01    4.3962717124428546E-01
C    3.7507869276864647E-01    1.9683616810288371E-01   -6.0372241449777195E-02
C   -3.7507883904422157E-01   -3.0316321490811765E-01   -4.3962717144959435E-01
C   -4.3727386927851941E-01    4.7426292913219942E-01    1.5252990680739265E-01
C    4.3727699801356712E-01   -2.5733627104307582E-02    3.4747128529341154E-01
C    4.3727387010864227E-01   -4.7426293050085061E-01   -1.5252990630620641E-01
C   -4.3727699735450809E-01    2.5733625948653666E-02   -3.4747128473467798E-01
C   -3.9964001427243900E-01    3.5848722793344795E-01    1.8535257680108605E-01
C    3.9964348372662034E-01   -1.4150925886304619E-01    3.1464849530437861E-01
C    3.9964001512161562E-01   -3.5848723089478185E-01   -1.8535257720740894E-01
C   -3.9964348356452384E-01    1.4150925834603462E-01   -3.1464849512776494E-01
C   -3.1670652923710085E-01   -4.9418205151374245E-01    2.0331866481108019E-01
C    3.1670946491232094E-01    5.8216758219683407E-03    2.9668148617603479E-01
C    3.1670652928512372E-01    4.9418204997931370E-01   -2.0331866505541779E-01
C   -3.1670946438842934E-01   -5.8216761765320516E-03   -2.9668148525671367E-01
C    2.4218498235517674E-01   -6.4251777771469884E-02   -3.7117707458433485E-02
C   -2.4218390890655814E-01    4.3575075193947549E-01   -4.6287971475905226E-01
C   -2.4218498466593108E-01    6.4251781087573498E-02    3.7117705969044915E-02
C    2.4218390787929014E-01   -4.3575075625147830E-01    4.6287971353468366E-01
C    1.6825344296975864E-01   -9.1990915515866606E-02   -8.3315998716354964E-02
C   -1.6825309618139073E-01    4.0801035706724825E-01   -4.1668065983798841E-01
C   -1.6825344473245463E-01    9.1990910221814298E-02    8.3315997912222398E-02
C    1.6825309533268321E-01   -4.0801035386439638E-01    4.1668065968815615E-01
C    1.9242883392199175E-01    1.2682504367026073E-01   -8.4228471823623238E-02
C   -1.9242809022568955E-01   -3.7317327861668725E-01   -4.1576836069869205E-01
C   -1.9242883388411863E-01   -1.2682504410732803E-01    8.4228472371019367E-02
C    1.9242809171561540E-01    3.7317328121607690E-01    4.1576836163263126E-01
C    3.5259999160422856E-01    4.8018998570206284E-01    3.4243273820853813E-02
C   -3.5259739777403770E-01   -1.9806565028789361E-02    4.6575836327992814E-01
C   -3.5259999156005861E-01   -4.8018998371289423E-01   -3.4243273815702531E-02
C    3.5259739890085634E-01    1.9806565762135100E-02   -4.6575836451040570E-01
C    3.7000351952868482E-01   -4.3234287976807451E-01    7.3588216243373528E-02
C   -3.6999991864606724E-01    6.7659555129222504E-02    4.2641353345627531E-01
C   -3.7000351809176701E-01    4.3234287987747666E-01   -7.3588215345624750E-02
C    3.6999991863692788E-01   -6.7659545423111991E-02   -4.2641353317193603E-01
C    3.7966986523497942E-01    3.5155600069060861E-01    9.7574926847321261E-02
C   -3.7966539596045507E-01   -1.4844216932631218E-01    4.0242766146984232E-01
C   -3.7966986507017131E-01   -3.5155600208578841E-01   -9.7574925637291199E-02
C    3.7966539790846782E-01    1.4844216263998744E-01   -4.0242766134630031E-01
C    7.8537140540162503E-02    1.8371017799542078E-01   -2.3711913711747282E-01
C   -7.8537653458302409E-02   -3.1628990131737161E-01   -2.6287705214346763E-01
C   -7.8537139273867546E-02   -1.8371017939261405E-01    2.3711913781523250E-01
C    7.8537654867419732E-02    3.1628990331765239E-01    2.6287705252598031E-01
C    6.1327146349936135E-02    2.9485575847521905E-01   -2.6979508437347849E-01
C   -6.1327718719657059E-02   -2.0514414405918949E-01   -2.3020118041375925E-01
C   -6.1327146138982713E-02   -2.9485576023113652E-01    2.6979508461839918E-01
C    6.1327718012541832E-02    2.0514414446842608E-01    2.3020118071125695E-01
C   -4.6996303862281430E-03    3.1522646638566443E-01   -2.4876300851971186E-01
C    4.6994448409914680E-03   -1.8477416871570315E-01   -2.5123295986053690E-01
C    4.6996305812129213E-03   -3.1522646637906326E-01    2.4876300865447909E-01
C   -4.6994451539379423E-03    1.8477416859737136E-01    2.5123295976997839E-01
C    1.3339219906580824E-02   -3.5815662698495021E-01   -3.7596819868406928E-01
C   -1.3342043627197112E-02    1.4184142302600170E-01   -1.2402911196177260E-01
C   -1.3339221488264774E-02    3.5815662667203924E-01    3.7596819723031838E-01
C    1.3342041207557803E-02   -1.4184142257497340E-01    1.2402910971997581E-01
C    7.6873260958022049E-02   -3.1847777137125050E-01   -3.6588357041311398E-01
C   -7.6877144308611145E-02    1.8151913907246425E-01   -1.3411494100994073E-01
C   -7.6873260542778488E-02    3.1847776932867095E-01    3.6588357132644400E-01
C    7.6877144064535691E-02   -1.8151913872044162E-01    1.3411494164134094E-01
H   -4.4919112574026476E-02   -3.7193174266984030E-01   -4.1354946936801379E-01
H    4.4915914861665768E-02    1.2806680090643810E-01   -8.6447341515245038E-02
H    4.4919110920413896E-02    3.7193174238018911E-01    4.1354946805208970E-01
H   -4.4915917751447529E-02   -1.2806680055322808E-01    8.6447339739870829E-02
H    8.3535998592238980E-02   -2.9031209939238128E-01   -3.9319212489944361E-01
H   -8.3541319242995377E-02    2.0968401559265407E-01   -1.0680710871078337E-01
H   -8.3535997976155019E-02    2.9031209732040542E-01    3.9319212589339614E-01
H    8.3541318451432534E-02   -2.0968401440727408E-01    1.0680710897684462E-01
H   -1.4288907587304692E-01    3.6303770881435049E-01    2.4722463269458064E-01
H    1.4288887873923023E-01   -1.3696048426238050E-01    2.5277277454096608E-01
H    1.4288907788497926E-01   -3.6303770948569419E-01   -2.4722463149033044E-01
H   -1.4288887650820606E-01    1.3696048410718414E-01   -2.5277277237228862E-01
H   -4.8272497556386817E-01   -1.8967723828955660E-01    1.7798617750445270E-01
H    4.8272903213049861E-01    3.1032536655754578E-01    3.2201567154825950E-01
H    4.8272497664093078E-01    1.8967723695279443E-01   -1.7798617743803669E-01
H   -4.8272903166007142E-01   -3.1032536711497055E-01   -3.2201567126135988E-01
H    4.0664236674623755E-01    1.7069928176931228E-02    1.2823495339169808E-01
H   -4.0663857951843257E-01    5.1707307390443247E-01    3.7176724126223198E-01
H   -4.0664236575748836E-01   -1.7069929053139487E-02   -1.2823495247161237E-01
H    4.0663858048742396E-01   -5.1707307471313879E-01   -3.7176724105174969E-01
H    4.7328751929861790E-01   -3.9607176211510248E-02    4.3452041224689882E-02
H   -4.7328595479978119E-01    4.6039644585592526E-01    4.5654875499963071E-01
H   -4.7328751843777522E-01    3.9607174457284927E-02   -4.3452041162739263E-02
H    4.7328595568547488E-01   -4.6039644577962519E-01   -4.5654875409238094E-01
H    4.7833395909064580E-01   -3.7600118126106113E-01    1.2920126095842302E-02
H   -4.7833314902767221E-01    1.2399979734814646E-01    4.8707974351721167E-01
H   -4.7833395974329307E-01    3.7600117602966254E-01   -1.2920125623859770E-02
H    4.7833314626757101E-01   -1.2399979602630601E-01   -4.8707974559868672E-01
H   -5.0023833887121183E-01   -3.3367932237610559E-01   -5.6333409725202663E-02
H    5.0023690188262071E-01    1.6631614726229432E-01   -4.4366773314590757E-01
H    5.0023834139030565E-01    3.3367932230216690E-01    5.6333412160452956E-02
H   -5.0023690122137987E-01   -1.6631614695629737E-01    4.4366773402182536E-01
H   -3.2397176036984188E-01   -1.3707587871809704E-01    9.1295016434035259E-02
H    3.2397204192893175E-01    3.6292379459691154E-01    4.0870437331441939E-01
H    3.2397175969115161E-01    1.3707587968309728E-01   -9.1295017912319851E-02
H   -3.2397204243525146E-01   -3.6292379335907138E-01   -4.0870437489520223E-01
H   -4.9726950550535431E-01    4.9833496793201959E-01    1.2247171964082076E-01
H    4.9727263989717518E-01   -1.6617724226588013E-03    3.7752996977684539E-01
H    4.9726950624092048E-01   -4.9833496991438470E-01   -1.2247171940636362E-01
H   -4.9727263932503685E-01    1.6617722367379642E-03   -3.7752996946359729E-01
H   -3.2210075479136213E-01   -2.1815911804621077E-01    3.1728169320535643E-01
H    3.2210671557777804E-01    2.8184079243042998E-01    1.8272101549686101E-01
H    3.2210075620341450E-01    2.1815911670552121E-01   -3.1728169249904997E-01
H   -3.2210671699130478E-01   -2.8184079198186707E-01   -1.8272101589274375E-01
H   -4.2211675108623958E-01    2.6454695359976227E-01    1.8831057740338331E-01
H    4.2212060487713055E-01   -2.3544942747276779E-01    3.1169078907760944E-01
H    4.2211675186028119E-01   -2.6454695610849566E-01   -1.8831057771153495E-01
H   -4.2212060427763903E-01    2.3544942697722443E-01   -3.1169078859634203E-01
H   -2.6270296687746553E-01   -4.4615879424723143E-01    2.2218458063161495E-01
H    2.6270571774496121E-01    5.3845075984595196E-02    2.7781503551481468E-01
H    2.6270296668500209E-01    4.4615879465535541E-01   -2.2218458037738570E-01
H   -2.6270571735523740E-01   -5.3845075192485561E-02   -2.7781503570480326E-01
H    2.8533436958595232E-01   -1.3244690657814850E-01   -3.9160063354961852E-03
H   -2.8533294971006973E-01    3.6755645218708710E-01   -4.9608192393059536E-01
H   -2.8533437223207581E-01    1.3244690907545639E-01    3.9160045309475644E-03
H    2.8533294798622744E-01   -3.6755645589060404E-01    4.9608192268389412E-01
H    1.3571830082422237E-01   -1.8866726162542002E-01   -9.7456597538649520E-02
H   -1.3571835427073925E-01    3.1133344027827065E-01   -4.0253974714648982E-01
H   -1.3571830278391930E-01    1.8866725634687898E-01    9.7456596459645120E-02
H    1.3571835319489145E-01   -3.1133343738739716E-01    4.0253974666092274E-01
H    1.8543861336387618E-01    2.3501005746698145E-01   -9.7208509277942945E-02
H   -1.8543786668080786E-01   -2.6498837795177071E-01   -4.0278821839825102E-01
H   -1.8543861447010812E-01   -2.3501005883500667E-01    9.7208508673992625E-02
H    1.8543786812233312E-01    2.6498838071174879E-01    4.0278821916451735E-01
H    3.3747044461120762E-01    5.0513458585302884E-01   -3.0246235162000447E-03
H   -3.3746884087365497E-01    5.1389860582293917E-03    5.0302585528708521E-01
H   -3.3747044353879047E-01   -5.0513458520579024E-01    3.0246237302288610E-03
H    3.3746884037626440E-01   -5.1389865882141301E-03   -5.0302585689616253E-01
H    3.7352414742053963E-01   -3.1845879480734490E-01    7.6721098941312404E-02
H   -3.7352060119010100E-01    1.8154358887463784E-01    4.2328033360003703E-01
H   -3.7352414663927985E-01    3.1845879513035341E-01   -7.6721098571807561E-02
H    3.7352060194811304E-01   -1.8154357904781643E-01   -4.2328033297675721E-01
H    3.8996599859627207E-01    2.6107832544056880E-01    1.2116053427345853E-01
H   -3.8996075644224271E-01   -2.3892048715779840E-01    3.7884255780480558E-01
H   -3.8996599864348597E-01   -2.6107832577441714E-01   -1.2116053276260197E-01
H    3.8996075630304738E-01    2.3892048209113026E-01   -3.7884255897161911E-01
H    1.1830138425240100E-01    9.7810482570634613E-02   -2.2166502307120250E-01
H   -1.1830198418408416E-01   -4.0218947095757507E-01   -2.7833122890499562E-01
H   -1.1830138325965248E-01   -9.7810484443167006E-02    2.2166502351984313E-01
H    1.1830198536866171E-01    4.0218947350928264E-01    2.7833122933180626E-01
H    8.2000159684459006E-02    3.2106569496647530E-01   -2.8875381312016074E-01
H   -8.2000968158115223E-02   -1.7893389289788436E-01   -2.1124263283068759E-01
H   -8.2000159033538800E-02   -3.2106569617662550E-01    2.8875381371909520E-01
H    8.2000967983003686E-02    1.7893389367068960E-01    2.1124263348190228E-01
H   -3.9945852659539516E-01   -4.5294856746245588E-01    2.5246613336051649E-01
H    3.9946474820703681E-01    4.7051111292618943E-02    2.4753639764787541E-01
H    3.9945852668038284E-01    4.5294856766726405E-01   -2.5246613386583022E-01
H   -3.9946474859743974E-01   -4.7051111448652518E-02   -2.4753639836591759E-01
H   -4.3549162504579075E-02    3.5594312989461585E-01   -2.4570151227808268E-01
H    4.3549224342437104E-02   -1.4405806952470251E-01   -2.5429429852205571E-01
H    4.3549162967240707E-02   -3.5594313056816446E-01    2.4570151276823124E-01
H   -4.3549224368540806E-02    1.4405806986073399E-01    2.5429429877150866E-01
H    4.4753688417281079E-01   -1.8292247633549727E-01    2.3538148689389882E-01
H   -4.4753092523278193E-01    3.1707875935352142E-01    2.6462129169853177E-01
H   -4.4753688499585853E-01    1.8292247737007808E-01   -2.3538148786133822E-01
H    4.4753092732227684E-01   -3.1707876003439406E-01   -2.6462129113891980E-01
H   -3.0116124934570832E-01    2.8469404012394495E-01    3.9096447896157205E-01
H    3.0116786488446107E-01   -2.1530493542774914E-01    1.0903759384004674E-01
H    3.0116124999602345E-01   -2.8469404051340086E-01   -3.9096447835696496E-01
H   -3.0116786365452231E-01    2.1530493750798713E-01   -1.0903759464451980E-01
H   -2.1437321345720201E-01    3.9088611659940020E-01    3.7184129788873321E-01
H    2.1437934040402828E-01   -1.0911020401850670E-01    1.2815999001445466E-01
H    2.1437321634425466E-01   -3.9088611708613885E-01   -3.7184129574641273E-01
H   -2.1437933879242474E-01    1.0911020384978262E-01   -1.2815998976752899E-01
H   -3.3051990615327292E-01    3.0287256802683984E-02    2.7741874769698438E-01
H    3.3052382878792108E-01   -4.6970979380039019E-01    2.2258263961268068E-01
H    3.3051990331549874E-01   -3.0287259157973433E-02   -2.7741875004999667E-01
H   -3.3052382746569464E-01    4.6970979043900779E-01   -2.2258263815285942E-01
H   -1.4059641928412331E-01   -1.0669815260300115E-03    2.8287186624461935E-01
H    1.4059885395140123E-01   -5.0106557234288707E-01    2.1712579807205112E-01
H    1.4059642040303577E-01    1.0669798128952529E-03   -2.8287186570444967E-01
H   -1.4059885451783138E-01    5.0106557238425897E-01   -2.1712579816852928E-01
H   -2.1375559423723869E-01   -2.3530034925791266E-01    2.1628596686434615E-01
H    2.1375707161022822E-01    2.6470163858872492E-01    2.8371211585898531E-01
H    2.1375559408338929E-01    2.3530034874563766E-01   -2.1628596646452758E-01
H   -2.1375707166073551E-01   -2.6470163881665132E-01   -2.8371211592615458E-01
H   -3.7627429779928012E-01    5.3487898939456852E-02    1.7717331429083957E-01
H    3.7627704026901782E-01   -4.4650710490922818E-01    3.2282839355370407E-01
H    3.7627429911998844E-01   -5.3487902231679714E-02   -1.7717331352697147E-01
H   -3.7627703852679517E-01    4.4650710448881076E-01   -3.2282839318532536E-01
N   -4.3279873469363445E-01   -1.5833390686471643E-01    2.8428156853539271E-01
N    4.3280467364337938E-01    3.4166679295796365E-01    2.1572127484107800E-01
N    4.3279873515741235E-01    1.5833390417626680E-01   -2.8428156814374395E-01
N   -4.3280467307845882E-01   -3.4166679774587450E-01   -2.1572127439826744E-01
N   -4.9495470932187879E-01   -3.4877593825466885E-01    2.3289348538564633E-01
N    4.9496077602753574E-01    1.5122455856778622E-01    2.6710913739286146E-01
N    4.9495470934708241E-01    3.4877594015256469E-01   -2.3289348616630540E-01
N   -4.9496077553399276E-01   -1.5122455965162301E-01   -2.6710913800247288E-01
N   -3.3199182053054682E-01    1.2984399787405107E-01    3.3295834511993860E-01
N    3.3199729971308800E-01   -3.7015430547039280E-01    1.6704360808695462E-01
N    3.3199181266638428E-01   -1.2984398511166809E-01   -3.3295835096493459E-01
N   -3.3199729848756909E-01    3.7015431350842204E-01   -1.6704360661648529E-01
N   -2.6116971934735034E-01    2.1363812408463659E-01    3.1835559212827852E-01
N    2.6117448798640902E-01   -2.8635834221923739E-01    1.8164549786868306E-01
N    2.6116970921710431E-01   -2.1363811479370318E-01   -3.1835559720883833E-01
N   -2.6117448299020979E-01    2.8635834418566208E-01   -1.8164549516783271E-01
N   -2.5489933458369768E-01    6.8525555345797462E-02    2.3732633512364390E-01
N    2.5490207932297237E-01   -4.3147102427535222E-01    2.6267352534983784E-01
N    2.5489933581481905E-01   -6.8525555305543454E-02   -2.3732633553265073E-01
N   -2.5490207877289134E-01    4.3147101966751672E-01   -2.6267352579294101E-01
N   -3.1368999060038361E-01   -1.2093202598339572E-01    1.8472584445545087E-01
N    3.1369207476668326E-01    3.7907159831609294E-01    3.1527425208266191E-01
N    3.1368998969678069E-01    1.2093202389453388E-01   -1.8472584544727891E-01
N   -3.1369207436272029E-01   -3.7907160039319093E-01   -3.1527425356005473E-01
N   -1.3742351855533164E-01    3.1689588839912369E-01    3.1123340062422783E-01
N    1.3742629063315773E-01   -1.8310092865461439E-01    1.8876529848714901E-01
N    1.3742352016961390E-01   -3.1689589023840281E-01   -3.1123339980684600E-01
N   -1.3742629042089244E-01    1.8310092921523322E-01   -1.8876529765595082E-01
N   -3.4325211954118418E-02    3.8095885211311792E-01    3.2762651424615014E-01
N    3.4326242552310982E-02   -1.1903994287157676E-01    1.7237021940876973E-01
N    3.4325214039880980E-02   -3.8095885177771122E-01   -3.2762651446466473E-01
N   -3.4326240604271363E-02    1.1903994042736361E-01   -1.7237022006733968E-01
N   -4.8818466103819080E-01   -1.4530593358820532E-01    1.1378831454517944E-01
N    4.8818733133934766E-01    3.5469724402762959E-01    3.8621286119081399E-01
N    4.8818466111822617E-01    1.4530592987158458E-01   -1.1378831454367468E-01
N   -4.8818732970820883E-01   -3.5469724631874888E-01   -3.8621286062668259E-01
N    4.2329603272649030E-01    2.2812361029215640E-02    7.3665073632967926E-02
N   -4.2329350023056828E-01   -4.7718407139928959E-01    4.2633643809558930E-01
N   -4.2329603186564335E-01   -2.2812364757570695E-02   -7.3665073538047465E-02
N    4.2329350110145897E-01    4.7718406783089934E-01   -4.2633643719271702E-01
N   -4.1906905152305368E-01   -2.5427898406023230E-01    6.6857577552035211E-02
N    4.1906999975935133E-01    2.4572236237580047E-01    4.3314226167878955E-01
N    4.1906905035825998E-01    2.5427898203609306E-01   -6.6857579271896311E-02
N   -4.1907000000581601E-01   -2.4572236423513222E-01   -4.3314225972176845E-01
N   -4.0143107075563866E-01   -2.2123688512958886E-01    1.1407678516474350E-02
N    4.0143021020101505E-01    2.7875994037331592E-01    4.8859130996407979E-01
N    4.0143107284591806E-01    2.2123688876143788E-01   -1.1407678701596440E-02
N   -4.0143020778476296E-01   -2.7875994102589879E-01   -4.8859130950181445E-01
N   -3.8412795604379535E-01   -4.3274552513219960E-01    1.6431719616943244E-01
N    3.8413073124567731E-01    6.7258102526276856E-02    3.3568336752858230E-01
N    3.8412795625528706E-01    4.3274552470626171E-01   -1.6431719607409070E-01
N   -3.8413073046693647E-01   -6.7258100809612323E-02   -3.3568336802778181E-01
N   -3.2304356932187567E-01    3.7939552460557530E-01    2.1735180143589120E-01
N    3.2304688725410557E-01   -1.2060081248971231E-01    2.8264861718352391E-01
N    3.2304357032621467E-01   -3.7939552568379159E-01   -2.1735180071857144E-01
N   -3.2304688719501590E-01    1.2060081411711211E-01   -2.8264861772834582E-01
N    2.5700154274676545E-01    7.4967650732585545E-02   -3.8015689436542148E-02
N   -2.5700020169169402E-01   -4.2502956708230111E-01   -4.6198183728847575E-01
N   -2.5700154136123543E-01   -7.4967648170161313E-02    3.8015690002061231E-02
N    2.5700020448834798E-01    4.2502956349814497E-01    4.6198183894064909E-01
N    1.3714204291820672E-01    2.9856753274992130E-02   -1.1299582873129310E-01
N   -1.3714189738723789E-01   -4.7014251606112378E-01   -3.8700047753415978E-01
N   -1.3714204176153016E-01   -2.9856756239156523E-02    1.1299582960357502E-01
N    1.3714189855786904E-01    4.7014251831683501E-01    3.8700047823848083E-01
N    3.5879029494572634E-01    3.4314302195298757E-01    4.9845913306388143E-02
N   -3.5878713929192768E-01   -1.5685391738415511E-01    4.5015625127800829E-01
N   -3.5879029350294261E-01   -3.4314301913808765E-01   -4.9845911811890312E-02
N    3.5878713780287713E-01    1.5685391616260605E-01   -4.5015625232637285E-01
N    3.8722051979118832E-01    4.8467784660609770E-01    1.1365801505518704E-01
N   -3.8721573955499650E-01   -1.5320737240105721E-02    3.8634433755390479E-01
N   -3.8722051945338798E-01   -4.8467784710091294E-01   -1.1365801449332892E-01
N    3.8721574070066339E-01    1.5320734943473345E-02   -3.8634433451006456E-01
N    3.6331789824565502E-02    1.9753933987228359E-01   -2.2400422912445769E-01
N   -3.6332054681793541E-02   -3.0246117657014576E-01   -2.7599176236875522E-01