 # Version information for this restart file 
 # current date 2017-10-11 18:01:22.722
 # current working dir /gpfs5r/workgpfs/rech/drd/rdrd007/johannes/series/ZIF-1/opt-2500-atomonly
 # Program compiled at                             Tue Oct  7 14:39:23 CEST 2014
 # Program compiled on                                                    ada337
 # Program compiled for                                 Linux-x86-64-gfortran.FL
 # Source code revision number                                         svn:13632
 &GLOBAL
   PRINT_LEVEL  MEDIUM
   PROJECT_NAME ZIF1
   RUN_TYPE ENERGY
 &END GLOBAL
  &FORCE_EVAL
   &PROPERTIES
    &RESP
       USE_REPEAT_METHOD
       &SPHERE_SAMPLING
         AUTO_VDW_RADII_TABLE UFF
       &END
       #gaussian->(c3_h1n2@imid)|ZIF1
       &CONSTRAINT
         EQUAL_CHARGES
         ATOM_LIST    1   2   3   4  33  34  35  36  65  66  67  68  81  82  83  84
       &END
       #gaussian->(zn4_n4@zn4tet)|ZIF1
       &CONSTRAINT
         EQUAL_CHARGES
         ATOM_LIST  129 130 131 132 133 134 135 136
       &END
       #gaussian->(h1_c1S@imid)|ZIF1
       &CONSTRAINT
         EQUAL_CHARGES
         ATOM_LIST    5   6   7   8  37  38  39  40  69  70  71  72  85  86  87  88
       &END
       #gaussian->(c3_c1h1n1@imid)|ZIF1
       &CONSTRAINT
         EQUAL_CHARGES
         ATOM_LIST    9  10  11  12  17  18  19  20  25  26  27  28  41  42  43  44  49  50  51  52  57  58  59  60  73  74  75  76  89  90  91  92
       &END
       #gaussian->(n3_c2zn1@imid)|ZIF1
       &CONSTRAINT
         EQUAL_CHARGES
         ATOM_LIST   97  98  99 100 101 102 103 104 105 106 107 108 109 110 111 112 113 114 115 116 117 118 119 120 121 122 123 124 125 126 127 128
       &END
       #gaussian->(h1_c1@imid)|ZIF1
       &CONSTRAINT
         EQUAL_CHARGES
         ATOM_LIST   13  14  15  16  21  22  23  24  29  30  31  32  45  46  47  48  53  54  55  56  61  62  63  64  77  78  79  80  93  94  95  96
       &END
     &PRINT
       &COORD_FIT_POINTS
       &END
       &RESP_CHARGES_TO_FILE
       &END
       &V_RESP_CUBE
       &END
     &END
    &END RESP
   &END PROPERTIES
   METHOD  QS
   STRESS_TENSOR  DIAGONAL_ANALYTICAL
   &DFT
     BASIS_SET_FILE_NAME /home/jdurholt/sandbox/cp2k-data/BASIS_SET
     BASIS_SET_FILE_NAME /home/jdurholt/sandbox/cp2k-data/BASIS_MOLOPT
     POTENTIAL_FILE_NAME /home/jdurholt/sandbox/cp2k-data/POTENTIAL
     &SCF
       MAX_SCF  10000
       EPS_SCF     1.0000000000000001E-10
       SCF_GUESS  RESTART
       &OT  T
         MINIMIZER  DIIS
         PRECONDITIONER  FULL_SINGLE_INVERSE
       &END OT
       &MIXING  T
         METHOD  PULAY_MIXING
         ALPHA     5.0000000000000000E-01
         NBUFFER  5
       &END MIXING
       &PRINT
         &RESTART  LOW
         &END RESTART
       &END PRINT
     &END SCF
     &QS
       EPS_DEFAULT     1.0000000000000000E-10
     &END QS
     &MGRID
       NGRIDS  4
       CUTOFF     2.5000000000000000E+03
       REL_CUTOFF     1.0000000000000000E+02
     &END MGRID
     &XC
       DENSITY_CUTOFF     1.0000000000000000E-10
       GRADIENT_CUTOFF     1.0000000000000000E-10
       TAU_CUTOFF     1.0000000000000000E-10
       &XC_FUNCTIONAL  NO_SHORTCUT
         &PBE  T
         &END PBE
       &END XC_FUNCTIONAL
       &VDW_POTENTIAL
         POTENTIAL_TYPE  PAIR_POTENTIAL
         &PAIR_POTENTIAL
           R_CUTOFF     1.6000000000000000E+01
           TYPE  DFTD3
           PARAMETER_FILE_NAME /home/jdurholt/sandbox/cp2k-data/dftd3.dat
           REFERENCE_FUNCTIONAL PBE
         &END PAIR_POTENTIAL
       &END VDW_POTENTIAL
     &END XC
     &PRINT
       &V_HARTREE_CUBE
       &END
       &E_DENSITY_CUBE
       &END
     &END PRINT
   &END DFT
   &SUBSYS
     &CELL
       A     9.9418517067039307E+00    0.0000000000000000E+00    0.0000000000000000E+00
       B     0.0000000000000000E+00    1.4924560129712226E+01    0.0000000000000000E+00
       C    -7.8499052090471366E+00    0.0000000000000000E+00    1.4451106306291924E+01
       MULTIPLE_UNIT_CELL  1 1 1
       SYMMETRY  MONOCLINIC
     &END CELL
     &COORD
C   -3.1497969850814211E-01    9.9702650555915526E-02    1.6560716342775880E-01
C    3.1497648832641550E-01   -4.0029904884524986E-01    3.3439162043134463E-01
C    3.1497975049767890E-01   -9.9702548545873543E-02   -1.6560720048172056E-01
C   -3.1497643089202226E-01    4.0029896469595377E-01   -3.3439164976444363E-01
H   -4.0413311037782956E-01    7.3748480593043314E-02    9.9133676455061145E-02
H    4.0413355488381109E-01   -4.2625259974534940E-01    4.0086423719866487E-01
H    4.0413316753857964E-01   -7.3748319912319060E-02   -9.9133744775759647E-02
H   -4.0413350165071804E-01    4.2625245736674294E-01   -4.0086429510779259E-01
C   -1.5113365244763918E-01    1.1032625196265274E-01    3.1323220784927602E-01
C    1.5112355938351363E-01   -3.8967647826946622E-01    1.8676766360036684E-01
C    1.5113367609839978E-01   -1.1032620220446360E-01   -3.1323225498990964E-01
C   -1.5112351721217310E-01    3.8967644093533094E-01   -1.8676769552130248E-01
H   -8.8600734081940635E-02    9.1242252460103618E-02    3.8640958862517977E-01
H    8.8588341716909644E-02   -4.0876052158481208E-01    1.1359036575379149E-01
H    8.8600770120288497E-02   -9.1242209873441282E-02   -3.8640964071928929E-01
H   -8.8588292255993406E-02    4.0876049221423449E-01   -1.1359040191038490E-01
C   -1.4272271668279990E-01    1.8802913067415500E-01    2.6900106401712226E-01
C    1.4271224921748993E-01   -3.1197440440428031E-01    2.3099976733589178E-01
C    1.4272278598649027E-01   -1.8802905035313189E-01   -2.6900105423491993E-01
C   -1.4271217263871774E-01    3.1197434441332733E-01   -2.3099975667895525E-01
H   -7.1341751545406895E-02    2.4787256249093961E-01    2.9731596319131304E-01
H    7.1327974968791466E-02   -2.5213203123464162E-01    2.0268592566560159E-01
H    7.1341788876023743E-02   -2.4787246932226076E-01   -2.9731594924054716E-01
H   -7.1327915527397118E-02    2.5213196405682764E-01   -2.0268590773417430E-01
C   -3.9736534640398849E-02    2.7681411429056013E-01    2.9387875192009191E-02
C    3.9732804557812695E-02   -2.2318549028519571E-01    4.7061092971733764E-01
C    3.9736617570122298E-02   -2.7681412862836052E-01   -2.9387817814744033E-02
C   -3.9732730251183734E-02    2.2318550778554189E-01   -4.7061088271007379E-01
H   -9.6515183314744055E-02    2.2497285657652122E-01   -2.3353067174576764E-02
H    9.6509970163981162E-02   -2.7502714123698924E-01   -4.7664836247821218E-01
H    9.6515306909724596E-02   -2.2497289411613297E-01    2.3353147238972066E-02
H   -9.6509842951028879E-02    2.7502719913439982E-01    4.7664844919928839E-01
C   -1.0266187959218548E-02    3.7802003348960928E-01    1.3271622548783985E-01
C    1.0265532983951553E-02   -1.2197949978643984E-01    3.6728326585032289E-01
C    1.0266193180105382E-02   -3.7802003451888366E-01   -1.3271618007946367E-01
C   -1.0265515579581608E-02    1.2197951069442066E-01   -3.6728322313656819E-01
H   -3.2853731269292169E-02    4.2135896945300944E-01    1.7880869106546340E-01
H    3.2854682826665454E-02   -7.8640710953225557E-02    3.2119135968870749E-01
H    3.2853708039778218E-02   -4.2135898926932502E-01   -1.7880864374582975E-01
H   -3.2854690545012055E-02    7.8640733223627357E-02   -3.2119131901665199E-01
C   -3.8683205552373584E-01    4.6908646606737858E-01    1.1241767880657920E-01
C    3.8683130469285237E-01   -3.0916936421816924E-02    3.8758265081190818E-01
C    3.8683213020467599E-01   -4.6908649326405905E-01   -1.1241763190535384E-01
C   -3.8683126067974150E-01    3.0916980960986818E-02   -3.8758261142032990E-01
H   -3.2976539518677500E-01    5.0098668025181115E-01    7.7097939120848447E-02
H    3.2976442416382185E-01    9.8277208118410482E-04    4.2290252802789630E-01
H    3.2976549645317071E-01   -5.0098674188247050E-01   -7.7097892918916208E-02
H   -3.2976434269294935E-01   -9.8269416699009221E-04   -4.2290248222910215E-01
C    3.8534936757744737E-01    2.7249433898690478E-01   -8.4182173335594537E-02
C   -3.8535307028929056E-01   -2.2750585114748420E-01   -4.1581786060348674E-01
C   -3.8534927743452235E-01   -2.7249432621426939E-01    8.4182224171611045E-02
C    3.8535314637640089E-01    2.2750584801764812E-01    4.1581788511255557E-01
H    3.5734304198315808E-01    3.3161864904066823E-01   -5.5627432791826227E-02
H   -3.5734824113440650E-01   -1.6838149684067114E-01   -4.4437329584647589E-01
H   -3.5734294091488250E-01   -3.3161863868528418E-01    5.5627492408109484E-02
H    3.5734831865136563E-01    1.6838151094363488E-01    4.4437334317145205E-01
C   -5.2289298377880078E-01    6.0506007806500305E-03    3.5233124740303923E-01
C    5.2289213078190644E-01    5.0605341438487950E-01    1.4766931694247989E-01
C    5.2289303636101103E-01   -6.0506005520191289E-03   -3.5233122406933565E-01
C   -5.2289204867492245E-01   -5.0605341386604996E-01   -1.4766927941778576E-01
H   -4.9009078051205968E-01    7.5935644003255975E-02    3.5076106048841227E-01
H    4.9008958580617257E-01   -4.2406169662317300E-01    1.4923992509888750E-01
H    4.9009084181815010E-01   -7.5935651047978198E-02   -3.5076106448433564E-01
H   -4.9008946953095223E-01    4.2406170531384346E-01   -1.4923989320167888E-01
C    4.6381727987217225E-01   -1.3904112719784020E-01    3.2994217408408155E-01
C   -4.6381747886379521E-01    3.6096159125748123E-01    1.7005770340786378E-01
C   -4.6381728212284645E-01    1.3904112310630529E-01   -3.2994211454592098E-01
C    4.6381746917302413E-01   -3.6096158723752847E-01   -1.7005764668626772E-01
H   -5.2077501534497195E-01   -2.0594882824597441E-01    3.0785819879796583E-01
H    5.2077544545312149E-01    2.9405369917858987E-01    1.9214154974885733E-01
H    5.2077496335724105E-01    2.0594880344301852E-01   -3.0785811792322271E-01
H   -5.2077550959576913E-01   -2.9405368061918324E-01   -1.9214148701597267E-01
C   -1.0427935509274783E-01   -1.8418567755994722E-01    4.3802455355641129E-01
C    1.0427636344271558E-01    3.1581288826530585E-01    6.1973993831475005E-02
C    1.0427939797542118E-01    1.8418565726226102E-01   -4.3802451918126145E-01
C   -1.0427632577141549E-01   -3.1581284914978613E-01   -6.1973968545074969E-02
H   -1.9493266719012758E-01   -1.9763303057550641E-01    4.5639010681094816E-01
H    1.9492896324493775E-01    3.0236465361068215E-01    4.3608040267325517E-02
H    1.9493270416738606E-01    1.9763296315243389E-01   -4.5639008892083444E-01
H   -1.9492891133426665E-01   -3.0236458285037443E-01   -4.3608009580229895E-02
C    4.7534562791603141E-01   -1.6376529275024523E-01    9.3717240768445217E-02
C   -4.7534460213955909E-01    3.3623617988938892E-01    4.0628208543480027E-01
C   -4.7534551834993743E-01    1.6376530392644739E-01   -9.3717177182185918E-02
C    4.7534469609013286E-01   -3.3623615900795073E-01   -4.0628204164260284E-01
H    3.7779941122061400E-01   -1.1947006364940752E-01    7.8122473343875731E-02
H   -3.7779968926121282E-01    3.8053247496682957E-01    4.2187668253798305E-01
H   -3.7779929933675171E-01    1.1947006707299013E-01   -7.8122383889342811E-02
H    3.7779977400355613E-01   -3.8053244164594097E-01   -4.2187662808660542E-01
C   -2.9637609055991465E-01   -2.2376012258753236E-01    1.6444041067223331E-01
C    2.9637890348313040E-01    2.7623893383768588E-01    3.3555906577547145E-01
C    2.9637619012644667E-01    2.2376013126296662E-01   -1.6444035771258433E-01
C   -2.9637884009474558E-01   -2.7623890657415173E-01   -3.3555901707938290E-01
H   -1.7798813041429193E-01   -2.3413526044930424E-01    2.1860661225661490E-01
H    1.7799125456608239E-01    2.6586264183213082E-01    2.8139289374101933E-01
H    1.7798823282449272E-01    2.3413526858030079E-01   -2.1860656163066267E-01
H   -1.7799117726152647E-01   -2.6586262727891924E-01   -2.8139285700568650E-01
N   -2.4683303294016137E-01    1.8064955589388124E-01    1.7535837941547841E-01
N    2.4682698873605999E-01   -3.1935328622436171E-01    3.2464175294371073E-01
N    2.4683312461130638E-01   -1.8064946329891501E-01   -1.7535836658265527E-01
N   -2.4682690114868644E-01    3.1935321056334448E-01   -3.2464173925140538E-01
N   -2.6081800194913923E-01    5.4579452535308763E-02    2.4695198919223163E-01
N    2.6081247949798886E-01   -4.4542210146563910E-01    2.5304662002107214E-01
N    2.6081801434753815E-01   -5.4579397269289759E-02   -2.4695204813255636E-01
N   -2.6081245498943312E-01    4.4542205433930498E-01   -2.5304666597071329E-01
N   -1.1173082301598104E-01    3.1672235564773793E-01    7.4649820894387028E-02
N    1.1172864848548414E-01   -1.8327787163544190E-01    4.2534958156432845E-01
N    1.1173086815349528E-01   -3.1672235952804989E-01   -7.4649791117008452E-02
N   -1.1172859209206285E-01    1.8327789361454036E-01   -4.2534954278963494E-01
N   -3.7938714513211369E-01    3.7701075482481849E-01    1.2667474268674978E-01
N    3.7938675590652865E-01   -1.2299256708200211E-01    3.7332512733771162E-01
N    3.7938714118048256E-01   -3.7701077673815309E-01   -1.2667468767001203E-01
N   -3.7938674825752422E-01    1.2299260629939880E-01   -3.7332507074195764E-01
N   -4.6972016696921776E-01    2.3409354666704821E-01   -3.9727962236580580E-02
N    4.6971763690640955E-01   -2.6590814933258200E-01   -4.6027196004549115E-01
N    4.6972024671382256E-01   -2.3409353941808100E-01    3.9728021286924563E-02
N   -4.6971758946342612E-01    2.6590817626886498E-01    4.6027199911499178E-01
N   -4.7472961637646049E-01   -6.3220380030503953E-02    3.1577924412718750E-01
N    4.7472911749168134E-01    4.3678196671585334E-01    1.8422096132024032E-01
N    4.7472963324158612E-01    6.3220355874442941E-02   -3.1577921323624508E-01
N   -4.7472908773865607E-01   -4.3678193966351181E-01   -1.8422092174591939E-01
N   -3.8562830279127785E-01   -1.5468861595527897E-01    1.6983862888028414E-01
N    3.8562932515360804E-01    3.4531124949790148E-01    3.3016034613406020E-01
N    3.8562840654952146E-01    1.5468861994784733E-01   -1.6983856478849735E-01
N   -3.8562923450671494E-01   -3.4531124148824938E-01   -3.3016030351868786E-01
N   -1.2176977398581168E-01   -1.1985853153198298E-01    3.7259868115359207E-01
N    1.2176869165130094E-01    3.8014000995843089E-01    1.2740028883800211E-01
N    1.2176977877307477E-01    1.1985851693673866E-01   -3.7259865182603535E-01
N   -1.2176869601066224E-01   -3.8013999630301959E-01   -1.2740025297425406E-01
Zn   -3.1728653529277517E-01   -6.5285243919712174E-02    2.7383146550845372E-01
Zn    3.1728442733248818E-01    4.3471430447588161E-01    2.2616710434374129E-01
Zn    3.1728657018430606E-01    6.5285288312086090E-02   -2.7383144280224930E-01
Zn   -3.1728440462408747E-01   -4.3471433578946661E-01   -2.2616709264549986E-01
Zn   -2.9868772205205313E-01    2.7767776232539565E-01    7.9949071251813900E-02
Zn    2.9868507433448027E-01   -2.2232469896131440E-01    4.2005072470631061E-01
Zn    2.9868776229920185E-01   -2.7767770726621799E-01   -7.9949048765386790E-02
Zn   -2.9868505126362005E-01    2.2232466954635385E-01   -4.2005071847490344E-01
       SCALED  T
     &END COORD
     &KIND C
       BASIS_SET DZVP-GTH-PBE
       POTENTIAL GTH-PBE-q4
     &END KIND
     &KIND H
       BASIS_SET DZVP-GTH-PBE
       POTENTIAL GTH-PBE-q1
     &END KIND
     &KIND N
       BASIS_SET DZVP-GTH-PBE
       POTENTIAL GTH-PBE-q5
     &END KIND
     &KIND Zn
       BASIS_SET DZVP-MOLOPT-SR-GTH
       POTENTIAL GTH-PBE-q12
     &END KIND
     &TOPOLOGY
       NUMBER_OF_ATOMS  136
       MULTIPLE_UNIT_CELL  1 1 1
     &END TOPOLOGY
   &END SUBSYS
 &END FORCE_EVAL
